LAMMPS (23 Jun 2022)
#LAMMPS init file for NaCl dissociation in water
# ------------------------------- Initialization Section --------------------
units        real                            # A, fs, Kcal/mol
atom_style   full                            # Accepts positions, masses, bonds, angles, charges
pair_style lj/charmm/coul/long 9.0 10.0      # Classical LJ style potential + coulomb interaction with two cutoffs
bond_style  harmonic                         # Uses an harmonic potential around an equilibrium value for bonds
angle_style harmonic                         # Uses an harmonic potential around an equilibrium value for angles

# ------------------------------- Atom Definition Section -------------------
read_data    "../NaCl_216wat.data"           # Read from file the positions, masses, velocities, bonds and charges of the atoms
Reading data file ...
  orthogonal box = (0.12622049 0.12622049 0.12622049) to (18.47378 18.47378 18.47378)
  2 by 2 by 4 MPI processor grid
  reading atoms ...
  650 atoms
  reading velocities ...
  650 velocities
  scanning bonds ...
  2 = max bonds/atom
  scanning angles ...
  1 = max angles/atom
  reading bonds ...
  432 bonds
  reading angles ...
  216 angles
Finding 1-2 1-3 1-4 neighbors ...
  special bond factors lj:    0        0        0       
  special bond factors coul:  0        0        0       
     2 = max # of 1-2 neighbors
     1 = max # of 1-3 neighbors
     1 = max # of 1-4 neighbors
     2 = max # of special neighbors
  special bonds CPU = 0.001 seconds
  read_data CPU = 0.027 seconds

group wat type  1  2                         # Define a group for the water molecules (types 1=O, 2=H)
648 atoms in group wat

# ------------------------------- Settings Section --------------------------

### TIP3P Potential Parameters --> Water ###
set type 1 charge -0.834                     # Set charge for O
Setting atom values ...
  216 settings made for charge
set type 2 charge  0.417                     # Set charge for H
Setting atom values ...
  432 settings made for charge
pair_coeff 1 1 0.1521 3.1507                 # Set O interaction parameters
pair_coeff 2 2 0.0460 0.4000                 # Set H interaction parameters
pair_coeff 1 2 0.0836 1.7753                 # Set O-H interaction parameters
bond_coeff  1 450 0.9572                     # Set O-H bond parameters
angle_coeff 1 55 104.52                      # Set H-O-H angle parameters
kspace_style pppm 1.0e-5                     # final npt relaxation
pair_coeff 3 3  0.3526418 2.1595384928       # Set Na interaction parameters
pair_coeff 4 4   0.0127850  4.8304528498     # Set Cl interaction parameter

# ------------------------------- Run Section -------------------------------

# The dump command is used to print output, here: atom-id, molecule-id, lammps-type, xyz coord, image-xyz (for PBC box)
dump         1 all custom 500 traj_unbiased.lammpstrj id mol type x y z ix iy iz

timestep     2.0                                       # fs

# The fix command is used to act on your system
fix          fxnvt all nvt temp 300.0 300.0 500.0      # 300K Nose-Hoover thermostat to sample the NVT canonical ensemble, tau = 500*dt
fix pl all plumed plumedfile plumed.dat outfile p.log  # Make LAMMPS aware that we want to use PLUMED! Load the plumed.dat input file
fix fRattleWat wat rattle 0.0001 10 0 b 1 a 1        # Fix bonds and angles of water molecules, allow to use longer dt and it's fine for us
       0 = # of size 2 clusters
       0 = # of size 3 clusters
       0 = # of size 4 clusters
     216 = # of frozen angles
  find clusters CPU = 0.001 seconds

# The thermo command computes the thermodynamic quantities we may be interested in, can specify which ones with thermo_style
thermo         500                                       # compute and print on screen every 500dt
thermo_style   custom step temp press epair etotal

run            2500000                                    # run the simualtion for N steps
PPPM initialization ...
  using 12-bit tables for long-range coulomb (../kspace.cpp:342)
  G vector (1/distance) = 0.30520329
  grid = 16 16 16
  stencil order = 5
  estimated absolute RMS force accuracy = 0.0030333252
  estimated relative force accuracy = 9.1347686e-06
  using double precision KISS FFT
  3d grid and FFT values/proc = 2475 256
Generated 5 of 6 mixed pair_coeff terms from arithmetic mixing rule
Neighbor list info ...
  update every 1 steps, delay 10 steps, check yes
  max neighbors/atom: 2000, page size: 100000
  master list distance cutoff = 12
  ghost atom cutoff = 12
  binsize = 6, bins = 4 4 4
  1 neighbor lists, perpetual/occasional/extra = 1 0 0
  (1) pair lj/charmm/coul/long, perpetual
      attributes: half, newton on
      pair build: half/bin/newton
      stencil: half/bin/3d
      bin: standard
Per MPI rank memory allocation (min/avg/max) = 9.608 | 9.611 | 9.613 Mbytes
   Step          Temp          Press          E_pair         TotEng    
         0   306.42593     -1862.5084     -2545.2648     -2149.7637    
       500   319.952        800.90125     -2342.575      -1934.396     
      1000   314.13407      26.626386     -2338.3839     -1937.1089    
      1500   296.22353      870.01623     -2280.4546     -1900.7701    
      2000   301.08353      240.96001     -2276.6284     -1891.0955    
      2500   299.23481      2144.6845     -2312.3677     -1929.6958    
      3000   301.26707      460.32374     -2312.5995     -1926.7749    
      3500   313.65002      728.11265     -2280.5049     -1877.2712    
      4000   294.14375      2267.5508     -2304.7508     -1929.044     
      4500   293.80209      1194.8353     -2306.04       -1930.0264    
      5000   299.86815      1080.0031     -2320.0697     -1936.1936    
      5500   285.78626      1048.1432     -2281.0532     -1913.0668    
      6000   307.43162      796.94171     -2318.1716     -1921.908     
      6500   296.45901      858.56548     -2337.6147     -1957.2065    
      7000   313.47943      671.75267     -2321.1425     -1917.586     
      7500   299.84826      2168.4205     -2298.9603     -1911.0518    
      8000   292.51257     -519.94964     -2340.0897     -1961.5046    
      8500   295.56336      2005.5882     -2310.5003     -1930.2608    
      9000   309.1273       1204.7314     -2311.7948     -1913.5602    
      9500   294.9218       1679.1526     -2331.0907     -1950.8604    
     10000   289.00601      712.9474      -2364.8955     -1992.1738    
     10500   296.23718      1888.4138     -2315.8117     -1934.5939    
     11000   319.00288      803.37175     -2331.0267     -1922.2219    
     11500   286.38879      922.21659     -2325.0741     -1958.2366    
     12000   326.17582      750.68898     -2323.3986     -1905.2682    
     12500   312.57633      324.97856     -2316.7945     -1915.9645    
     13000   269.55457     -270.28534     -2323.4207     -1975.4265    
     13500   291.53506      999.91503     -2350.9091     -1975.7017    
     14000   317.26436     -388.38277     -2346.6604     -1939.3024    
     14500   294.25326      1121.2691     -2269.7596     -1891.4379    
     15000   293.19527      2222.7397     -2258.3858     -1879.2558    
     15500   295.62263      888.45104     -2307.2042     -1924.6852    
     16000   293.44087      2061.9991     -2309.4204     -1929.3648    
     16500   322.1129       1141.0088     -2294.2472     -1878.8407    
     17000   299.43257      1048.3077     -2284.7731     -1900.4413    
     17500   293.01483      1384.5671     -2314.4198     -1939.1545    
     18000   309.38475      1494.8378     -2326.4483     -1928.414     
     18500   290.98928      1055.5418     -2286.4958     -1913.1067    
     19000   310.54405      1541.6484     -2257.3467     -1857.2773    
     19500   289.4776       2253.2864     -2278.4661     -1906.2026    
     20000   291.4493       1810.8605     -2306.6083     -1932.8185    
     20500   289.92357      544.54227     -2331.2014     -1960.5269    
     21000   291.00982     -560.06904     -2334.9184     -1962.22      
     21500   316.45398      363.58261     -2321.8775     -1915.8228    
     22000   301.29629      175.13061     -2315.5957     -1928.9317    
     22500   278.59208      661.0069      -2324.1212     -1967.1581    
     23000   305.44736      1038.6634     -2313.0243     -1918.1317    
     23500   303.13141      945.15633     -2300.2948     -1910.8017    
     24000   290.41779      1546.1345     -2291.6821     -1918.6476    
     24500   289.82137      1476.2394     -2316.5223     -1944.6415    
     25000   286.25543      1144.2645     -2330.6738     -1962.3383    
     25500   298.35871      1313.2657     -2293.504      -1909.6699    
     26000   298.38807      327.45235     -2329.5963     -1945.8275    
     26500   283.27882     -727.5151      -2322.5671     -1957.376     
     27000   298.93769      1412.7441     -2325.1642     -1939.6107    
     27500   304.19134      799.11982     -2300.2059     -1908.2056    
     28000   294.99686      1049.5433     -2272.0169     -1891.381     
     28500   304.11494      1591.1059     -2341.0494     -1947.8501    
     29000   321.31161      976.09215     -2332.2662     -1916.6814    
     29500   307.76008      1102.0796     -2275.4346     -1878.5346    
     30000   308.38894      432.7959      -2330.2581     -1931.8547    
     30500   284.87739      511.7589      -2298.2997     -1930.5193    
     31000   319.65172      861.20198     -2315.3452     -1901.6022    
     31500   302.51115      811.77116     -2313.894      -1923.0316    
     32000   299.35133      941.3468      -2324.7563     -1938.3482    
     32500   287.41976      60.331956     -2344.186      -1971.8068    
     33000   307.20542      1662.7776     -2309.7681     -1913.5045    
     33500   308.66333      2000.9767     -2320.0818     -1921.4242    
     34000   299.55286      1622.7783     -2350.9099     -1963.2615    
     34500   297.61956      948.39451     -2317.0532     -1934.4312    
     35000   310.60394     -815.84936     -2324.8126     -1924.1381    
     35500   318.36761      1541.4826     -2333.4107     -1922.6874    
     36000   294.0653       590.6961      -2321.5134     -1941.3987    
     36500   285.17851     -795.56817     -2352.7308     -1984.7244    
     37000   309.36459      714.10129     -2329.8072     -1933.3618    
     37500   312.5542      -456.12894     -2319.3144     -1918.1451    
     38000   315.15942      775.6534      -2283.9913     -1879.5122    
     38500   308.72627      168.0316      -2308.5367     -1911.0262    
     39000   288.89058     -352.29623     -2311.0036     -1939.3555    
     39500   298.63728      765.25225     -2283.1846     -1899.4946    
     40000   308.50287      1364.4106     -2292.8043     -1895.8613    
     40500   284.02214      1548.7622     -2302.312      -1936.7801    
     41000   304.1139       1686.0683     -2313.3472     -1922.431     
     41500   300.05204      1844.5558     -2278.6078     -1891.4219    
     42000   281.12555      1851.1299     -2300.5027     -1939.6252    
     42500   299.45785      1356.4063     -2318.5304     -1934.9519    
     43000   305.47143      599.27024     -2266.4711     -1873.7705    
     43500   331.03817      1107.0266     -2339.5004     -1913.1858    
     44000   325.9404       104.98362     -2354.0747     -1935.1855    
     44500   283.36202      2032.8021     -2297.6632     -1932.6629    
     45000   294.90962      2096.9675     -2269.2481     -1889.6729    
     45500   287.81362      1266.673      -2306.8393     -1935.8061    
     46000   315.02064     -756.89431     -2336.9151     -1930.1175    
     46500   318.25287      2547.7909     -2363.0248     -1952.0795    
     47000   277.72099      704.29431     -2310.9013     -1953.1436    
     47500   310.55009      1731.5589     -2310.6901     -1909.2194    
     48000   308.21855      630.80906     -2342.8984     -1946.5697    
     48500   298.86804      1168.7803     -2331.0711     -1944.4771    
     49000   321.24142      3246.0037     -2300.522      -1886.2792    
     49500   283.4953       390.73679     -2298.691      -1933.3156    
     50000   298.65124      265.39285     -2353.3775     -1967.5368    
     50500   311.3532       770.0285      -2305.0259     -1902.5793    
     51000   312.07796      935.70797     -2336.2706     -1934.5633    
     51500   303.16774      691.94002     -2333.7403     -1940.9801    
     52000   316.65236      1513.3991     -2303.5456     -1895.3149    
     52500   305.27631      1466.071      -2320.0174     -1926.3437    
     53000   295.97691      214.9242      -2325.3642     -1942.1864    
     53500   312.99057      2593.622      -2295.136      -1891.4306    
     54000   290.05857      1757.8101     -2317.5654     -1944.4303    
     54500   302.79061      131.97253     -2332.6498     -1942.8838    
     55000   309.67561      3410.4742     -2283.8608     -1884.7045    
     55500   295.50476      511.96604     -2301.4074     -1921.6163    
     56000   284.16294      583.44503     -2332.013      -1966.4193    
     56500   284.7079      -241.72369     -2338.1252     -1971.1209    
     57000   295.11479      1271.5027     -2311.5485     -1931.0378    
     57500   297.06008      1206.9363     -2273.9815     -1891.8649    
     58000   300.94519      2088.0504     -2325.5302     -1937.5904    
     58500   297.25395      1647.287      -2315.13       -1931.0375    
     59000   309.84945      1949.3956     -2311.6363     -1913.8567    
     59500   307.57171      747.43053     -2311.389      -1914.9919    
     60000   310.96563      874.59985     -2306.8813     -1906.1773    
     60500   294.52091      232.50743     -2323.787      -1943.1247    
     61000   291.08337      2609.9548     -2325.2475     -1948.8411    
     61500   309.77216      1382.1621     -2298.122      -1897.7121    
     62000   312.61397      387.94237     -2336.165      -1933.0197    
     62500   298.00024      579.51959     -2312.6516     -1929.0655    
     63000   295.77982      876.25952     -2307.861      -1926.9283    
     63500   299.10684     -445.09371     -2317.5768     -1932.6801    
     64000   307.79465      1508.2172     -2281.7695     -1883.6577    
     64500   312.79655      1782.7963     -2318.4522     -1914.9395    
     65000   297.56406      618.45114     -2328.2503     -1943.3264    
     65500   312.8152       304.61867     -2358.2457     -1955.1313    
     66000   296.49687      1323.7843     -2290.9885     -1909.3335    
     66500   311.00634      1774.6302     -2325.3312     -1925.1144    
     67000   292.81379      955.47414     -2321.9234     -1943.1068    
     67500   296.26636      2031.6578     -2295.0028     -1913.4452    
     68000   313.1375       772.88876     -2283.5493     -1878.907     
     68500   299.3062      -650.33521     -2313.4035     -1926.2894    
     69000   279.02193      2738.4928     -2280.8731     -1920.7822    
     69500   301.25186      613.74355     -2273.2839     -1884.3938    
     70000   289.97484     -39.379135     -2312.7485     -1940.3406    
     70500   310.91916      872.44996     -2317.4277     -1915.2572    
     71000   295.7262      -98.494885     -2337.8768     -1954.8824    
     71500   297.21788      184.21435     -2340.7478     -1957.9344    
     72000   292.11958      2929.387      -2296.6692     -1921.9187    
     72500   314.35473      1033.0605     -2332.4657     -1927.4153    
     73000   289.09556      2011.913      -2315.4777     -1942.9681    
     73500   304.85778      1251.8075     -2328.9851     -1936.0362    
     74000   281.30719      719.17714     -2295.954      -1933.5027    
     74500   313.07991      1090.9498     -2292.2194     -1887.1392    
     75000   303.43264      1033.8307     -2328.1822     -1936.6622    
     75500   304.92628     -346.22069     -2322.6954     -1929.5401    
     76000   305.6854       1515.813      -2277.1756     -1882.7772    
     76500   311.7922      -87.41847      -2346.8735     -1944.4371    
     77000   288.60429     -3.1250939     -2309.5159     -1937.842     
     77500   293.24416      626.97557     -2291.59       -1913.352     
     78000   280.14069      1343.5944     -2332.305      -1969.9109    
     78500   293.6299       764.74549     -2312.5844     -1932.4819    
     79000   288.36587     -0.040553366   -2294.6091     -1922.1236    
     79500   277.19452      575.16387     -2328.3248     -1969.4428    
     80000   297.51914      2558.6429     -2322.8695     -1938.8769    
     80500   307.21597      1762.4246     -2307.7822     -1910.5323    
     81000   320.0639       1098.9523     -2321.3522     -1908.1699    
     81500   297.00917     -527.40079     -2335.9848     -1952.9927    
     82000   312.45166      415.82893     -2339.8278     -1937.1252    
     82500   306.4832       1817.2415     -2309.8023     -1913.2163    
     83000   288.45801      1229.1359     -2330.7614     -1958.9309    
     83500   276.17302     -120.62942     -2351.8453     -1997.0686    
     84000   298.02308      2805.5105     -2336.5106     -1952.9966    
     84500   312.56464      1326.7213     -2317.34       -1914.3351    
     85000   293.37527      12.335219     -2283.7368     -1904.3553    
     85500   304.30632      1768.5302     -2334.0543     -1941.4587    
     86000   273.15123      1869.2124     -2314.6857     -1962.1517    
     86500   300.88228      254.26223     -2297.4259     -1909.1293    
     87000   313.00496     -143.72623     -2332.1599     -1928.3399    
     87500   295.77276      1667.9811     -2335.9505     -1953.0227    
     88000   307.94389     -138.88888     -2318.7277     -1922.01      
     88500   307.68776      973.56949     -2265.3558     -1868.6928    
     89000   310.37543      1394.0578     -2299.6505     -1901.4227    
     89500   287.08431      1978.5519     -2305.8932     -1937.4656    
     90000   283.69889      847.7453      -2321.8804     -1955.8315    
     90500   293.65162     -472.73607     -2280.941      -1901.4844    
     91000   279.95238      770.61096     -2305.1066     -1943.4339    
     91500   300.63938      912.96139     -2328.4719     -1940.4441    
     92000   291.55404      443.35187     -2302.2079     -1926.3105    
     92500   310.8466       2792.9738     -2275.5223     -1873.9982    
     93000   305.55718      713.15156     -2322.0891     -1927.9456    
     93500   300.56326      737.57335     -2321.547      -1933.0368    
     94000   309.79425      2900.3373     -2303.0035     -1902.1404    
     94500   293.52937      13.124307     -2330.9978     -1950.8893    
     95000   295.57251     -82.563852     -2312.6685     -1930.0674    
     95500   316.50127      1430.4877     -2310.2975     -1904.0794    
     96000   280.40308     -86.425419     -2296.4266     -1939.1285    
     96500   306.14763      370.05744     -2335.6548     -1944.8562    
     97000   308.24723      3174.4334     -2319.7138     -1925.9928    
     97500   300.32647      1228.3164     -2295.8162     -1912.4606    
     98000   286.49946      1135.1759     -2324.6048     -1959.2522    
     98500   317.20329     -122.93946     -2332.9811     -1927.3589    
     99000   284.93805      951.50681     -2285.0498     -1921.1905    
     99500   303.23636      809.84613     -2352.5666     -1964.3925    
    100000   294.07326      488.39245     -2330.7266     -1954.7477    
    100500   308.26323      194.53549     -2324.7706     -1930.2803    
    101000   312.12568      1046.6603     -2328.3161     -1928.6036    
    101500   315.07282      1501.2067     -2329.1538     -1925.4223    
    102000   297.61241      896.11194     -2338.2913     -1956.0469    
    102500   270.92972      1780.0636     -2298.8828     -1952.5068    
    103000   293.29881      143.15126     -2288.1462     -1912.5182    
    103500   303.16958      2415.6311     -2307.3441     -1918.925     
    104000   291.02422      754.38158     -2344.1976     -1971.4019    
    104500   301.26386      1087.7317     -2314.003      -1927.7921    
    105000   303.62725      1064.5238     -2303.6284     -1915.8349    
    105500   296.82322      752.61136     -2288.3928     -1907.4118    
    106000   301.17099      2337.613      -2287.1359     -1901.1004    
    106500   283.91853      1424.5359     -2316.9012     -1952.9788    
    107000   281.63064      877.25303     -2311.0364     -1949.8593    
    107500   320.23346      1582.8146     -2293.8255     -1883.7709    
    108000   311.62023     -204.20543     -2305.1112     -1905.0297    
    108500   288.86167      731.04414     -2322.5185     -1950.5305    
    109000   296.97171      1559.4395     -2300.7025     -1919.165     
    109500   301.30847      414.0048      -2291.7501     -1905.1893    
    110000   293.36684      1042.0367     -2325.5917     -1950.1216    
    110500   305.74036     -13.248552     -2324.8322     -1932.964     
    111000   299.40539      648.68258     -2305.5987     -1921.9631    
    111500   315.23917     -240.14089     -2343.4        -1938.9498    
    112000   283.26336      1617.2943     -2319.0272     -1955.3425    
    112500   310.65477      2220.157      -2306.5555     -1908.4127    
    113000   306.07252      1456.6981     -2323.8814     -1930.4845    
    113500   300.17172      686.02211     -2327.2237     -1941.5019    
    114000   320.07524      1433.5394     -2338.1827     -1926.6885    
    114500   293.33022      1467.0926     -2255.5704     -1878.6368    
    115000   305.84985      826.26945     -2303.0085     -1910.3107    
    115500   292.87875      1422.1068     -2296.4047     -1920.4684    
    116000   321.80623     -1025.655      -2303.0399     -1889.9057    
    116500   297.44184      431.41842     -2313.2585     -1931.0365    
    117000   302.974        310.68896     -2322.6765     -1933.7834    
    117500   312.45752      1358.5273     -2294.6906     -1893.0056    
    118000   298.25141     -361.32989     -2297.0426     -1913.2793    
    118500   300.32456      876.236       -2316.407      -1930.9527    
    119000   289.28185      1697.2669     -2314.2757     -1945.2853    
    119500   307.63644      2442.3628     -2298.9503     -1905.5595    
    120000   286.71624      2009.2747     -2290.8411     -1921.7716    
    120500   300.23091      545.12377     -2337.0477     -1950.8839    
    121000   306.76619      1355.2821     -2291.056      -1896.8251    
    121500   304.4878       2681.6831     -2328.1148     -1936.306     
    122000   289.05224      812.52404     -2318.1009     -1945.1096    
    122500   301.7145       2441.1761     -2314.0156     -1925.2321    
    123000   295.8976       1307.8265     -2311.3032     -1931.0174    
    123500   295.96168      4061.2399     -2314.1893     -1933.1229    
    124000   290.26643      193.36071     -2324.3204     -1951.8495    
    124500   323.14181      2010.2437     -2323.2998     -1906.6488    
    125000   292.77674     -252.40331     -2310.9546     -1933.5267    
    125500   298.91135      447.50973     -2328.6229     -1942.8263    
    126000   299.59561     -227.0809      -2294.2194     -1907.0382    
    126500   293.7267       423.78946     -2320.5169     -1940.432     
    127000   302.66173      618.48977     -2351.8049     -1960.868     
    127500   322.32788      2816.1096     -2323.2698     -1906.2164    
    128000   301.26361      617.54042     -2305.2978     -1915.4903    
    128500   299.83505      778.28609     -2353.6521     -1966.9853    
    129000   278.66514      1323.1994     -2312.2171     -1952.9492    
    129500   302.30003      749.75738     -2316.1622     -1926.2104    
    130000   301.67021      2930.569      -2295.942      -1905.4743    
    130500   306.30328     -392.60864     -2308.8551     -1913.4234    
    131000   300.12603      851.32333     -2335.6984     -1950.0898    
    131500   324.28645      1520.5273     -2314.5258     -1894.8987    
    132000   297.67778      2088.4314     -2296.9311     -1911.7244    
    132500   292.53331      2837.5206     -2304.6574     -1926.7201    
    133000   281.01212      229.42294     -2318.9473     -1957.1456    
    133500   277.41949      693.76681     -2310.8092     -1953.1378    
    134000   287.05113      987.61852     -2277.231      -1907.496     
    134500   304.92902     -247.42219     -2329.7192     -1935.3324    
    135000   288.31912      820.05623     -2336.5965     -1965.7188    
    135500   295.36119      1032.2898     -2295.4577     -1914.6286    
    136000   300.97223     -619.55408     -2273.2492     -1884.7936    
    136500   280.94665      1236.0156     -2284.4352     -1920.5526    
    137000   295.82274      1394.2248     -2341.0548     -1958.1853    
    137500   296.27728      925.34195     -2307.3331     -1928.1471    
    138000   295.89346      1046.6352     -2287.1428     -1908.0407    
    138500   293.0225       69.323836     -2324.8841     -1948.3682    
    139000   299.68408      704.59615     -2374.0725     -1988.4554    
    139500   305.05143      462.50911     -2322.8555     -1930.7928    
    140000   329.95598     -241.89157     -2332.4309     -1908.5014    
    140500   280.10293      1535.4554     -2317.218      -1956.1303    
    141000   300.3948       814.56058     -2314.7559     -1928.9453    
    141500   316.04341      1096.1153     -2284.6543     -1878.715     
    142000   300.92417      384.02165     -2319.1202     -1932.0175    
    142500   306.16278     -55.440167     -2319.4704     -1925.2012    
    143000   282.43674     -414.97687     -2246.5992     -1884.5159    
    143500   320.47953      968.51483     -2325.9256     -1913.2901    
    144000   284.24985      1004.0546     -2300.9628     -1937.0056    
    144500   301.77063      862.00264     -2316.4622     -1927.6715    
    145000   293.38737      911.00823     -2263.2509     -1885.9054    
    145500   289.94568     -94.877456     -2308.7124     -1934.5116    
    146000   286.31832      454.96177     -2305.9826     -1936.7735    
    146500   312.7091       1172.0689     -2294.2473     -1891.9176    
    147000   325.19409      1681.0115     -2287.4921     -1870.4126    
    147500   278.51812      1844.5015     -2291.1202     -1933.8155    
    148000   303.25623      1025.6689     -2297.09       -1907.6346    
    148500   317.22504      553.41467     -2292.8008     -1882.2929    
    149000   303.88951      1268.7774     -2339.1944     -1946.1158    
    149500   294.10576      1598.782      -2317.7855     -1938.264     
    150000   315.63648      2011.4328     -2291.337      -1882.9206    
    150500   305.3924       981.3549      -2308.1422     -1916.2178    
    151000   293.05169      1040.5095     -2299.3329     -1921.5917    
    151500   311.70389      1721.3026     -2309.709      -1908.7292    
    152000   286.81182      1345.2929     -2309.8785     -1940.3864    
    152500   292.27876      1380.0265     -2329.3135     -1951.1326    
    153000   294.2937       54.071365     -2287.8647     -1907.665     
    153500   299.22265      708.35345     -2308.4492     -1921.2335    
    154000   284.88459     -1081.8597     -2306.3826     -1937.7013    
    154500   298.79651     -396.01914     -2274.0165     -1889.1955    
    155000   288.76748      2499.0923     -2307.6412     -1935.1121    
    155500   286.58284      335.63744     -2319.3232     -1949.3855    
    156000   301.35932      1148.0207     -2322.8446     -1933.7991    
    156500   302.38842      1457.4771     -2327.6035     -1937.897     
    157000   282.95646      1357.7871     -2329.684      -1964.917     
    157500   310.70876      1564.6668     -2314.2102     -1911.9341    
    158000   294.83426      396.40951     -2317.2589     -1936.4573    
    158500   318.17369      54.033419     -2291.5656     -1881.246     
    159000   334.06469     -1223.3863     -2333.4975     -1901.4871    
    159500   299.9866      -683.63445     -2325.9596     -1938.6475    
    160000   303.30158     -95.610853     -2299.6079     -1906.946     
    160500   313.48758      2078.0629     -2290.0764     -1884.1847    
    161000   301.57866      1904.1372     -2302.9899     -1912.387     
    161500   299.62625      2046.5585     -2317.8913     -1930.7354    
    162000   316.01972      1747.2453     -2287.8647     -1879.8271    
    162500   290.67956      866.42646     -2287.0394     -1911.8113    
    163000   303.508        1646.0954     -2319.8523     -1928.3999    
    163500   286.72455      233.53305     -2333.062      -1962.1778    
    164000   288.92213      456.84956     -2353.8616     -1981.6878    
    164500   314.55461      1327.3377     -2329.3501     -1923.2017    
    165000   304.70431      1684.0553     -2320.5632     -1925.9186    
    165500   278.17295     -712.73457     -2335.2685     -1975.0513    
    166000   291.87247      1507.7864     -2314.6046     -1938.2081    
    166500   303.88523     -633.2895      -2326.1238     -1933.4138    
    167000   306.64028      2404.0664     -2295.8047     -1900.0929    
    167500   316.62442      2212.678      -2287.7867     -1877.9567    
    168000   309.83993      677.08902     -2335.0861     -1935.7234    
    168500   297.63965      73.137998     -2321.7022     -1937.7961    
    169000   316.8678       2108.3186     -2328.2314     -1918.2901    
    169500   301.74225      378.3253      -2269.5409     -1879.8148    
    170000   292.0167       1939.6938     -2301.5127     -1924.8824    
    170500   304.55496      1543.3417     -2345.292      -1951.8654    
    171000   311.92298      1481.5204     -2303.3447     -1901.0863    
    171500   317.30377     -139.84555     -2320.6999     -1911.604     
    172000   294.64036      1930.9466     -2327.945      -1948.0356    
    172500   310.88665     -124.3632      -2335.6882     -1933.0865    
    173000   305.38228      780.35079     -2309.8857     -1915.8239    
    173500   290.69611      385.63263     -2305.8827     -1929.1973    
    174000   324.65031      2280.8346     -2314.9409     -1894.3543    
    174500   319.12012      711.09073     -2302.9173     -1891.9223    
    175000   290.25087      613.1313      -2312.9014     -1938.5363    
    175500   310.467       -201.75414     -2349.6748     -1948.9591    
    176000   293.36249      2501.935      -2306.8553     -1927.6885    
    176500   309.22823      2365.1819     -2299.2205     -1899.6678    
    177000   301.63841      982.47482     -2346.6706     -1957.8587    
    177500   300.19552      41.875237     -2325.0527     -1937.299     
    178000   310.17988      213.24908     -2305.3362     -1904.0847    
    178500   298.53095      1009.5832     -2324.0317     -1938.6563    
    179000   288.60835      1318.1534     -2327.6924     -1954.008     
    179500   308.6375       1112.457      -2312.1233     -1913.8412    
    180000   300.14485      1609.3737     -2302.7918     -1916.3222    
    180500   291.89195      636.46525     -2337.467      -1959.5366    
    181000   312.12825     -131.82071     -2346.1864     -1941.9957    
    181500   319.79093      396.97167     -2305.3078     -1892.0638    
    182000   309.17197      1162.299      -2338.7672     -1939.3767    
    182500   306.99162      483.68246     -2340.7751     -1944.94      
    183000   304.33169      721.71709     -2297.0837     -1904.3014    
    183500   305.69573      2636.5233     -2238.2043     -1842.1368    
    184000   321.45587      2205.034      -2321.7182     -1907.0587    
    184500   306.6396      -216.94251     -2330.9696     -1933.8933    
    185000   294.05143      1659.7913     -2305.8041     -1927.7314    
    185500   290.42114      842.04778     -2336.1279     -1961.1171    
    186000   299.69857      3338.0911     -2298.8561     -1914.8852    
    186500   304.07975      1390.128      -2300.0924     -1909.2672    
    187000   290.95598      1518.136      -2338.4619     -1963.8481    
    187500   303.41405     -622.99087     -2347.5212     -1958.5809    
    188000   302.91516      1422.8095     -2304.8596     -1914.148     
    188500   318.93536      2117.7219     -2286.1661     -1875.6025    
    189000   309.42026      2609.3854     -2276.4855     -1878.1769    
    189500   312.39075      1688.5381     -2330.9918     -1929.9966    
    190000   278.43387      1039.8489     -2312.344      -1953.7325    
    190500   311.73867      3047.6634     -2305.6895     -1903.8319    
    191000   293.64902     -1830.7394     -2315.9219     -1938.0111    
    191500   295.46213      1695.2252     -2318.1018     -1937.717     
    192000   305.38238      1164.3072     -2322.4907     -1928.0374    
    192500   304.0077       1634.0068     -2339.1106     -1948.5373    
    193000   274.52024      2481.1808     -2322.0223     -1970.2111    
    193500   305.45304      2633.3007     -2328.4208     -1934.4958    
    194000   303.32311      605.45909     -2310.2064     -1919.6881    
    194500   316.65842      1610.7619     -2289.3098     -1882.6241    
    195000   284.43373      1432.0821     -2303.2167     -1936.9106    
    195500   313.83306      658.85302     -2338.688      -1935.3854    
    196000   296.3635       1139.1985     -2262.3567     -1880.9723    
    196500   302.53148      2270.4351     -2295.5559     -1905.8181    
    197000   301.49218      2350.2211     -2328.152      -1938.1738    
    197500   309.07737      1680.1355     -2340.8487     -1944.0092    
    198000   309.19246      828.72523     -2286.061      -1888.936     
    198500   297.06909      1037.8401     -2297.5286     -1915.8877    
    199000   287.50103      1466.3204     -2336.9715     -1966.086     
    199500   305.63392      1457.6216     -2312.3075     -1920.3785    
    200000   297.42873      1783.0147     -2313.703      -1929.8819    
    200500   306.64468      1961.7823     -2340.4971     -1945.1238    
    201000   299.29477      885.74092     -2331.8739     -1945.742     
    201500   307.37955      656.02384     -2317.1688     -1919.1733    
    202000   313.75202      1207.1145     -2292.2392     -1888.8589    
    202500   310.02893      457.45602     -2338.4779     -1940.8914    
    203000   296.62022      377.36097     -2322.8018     -1942.4658    
    203500   322.35952     -621.3305      -2327.0321     -1911.9073    
    204000   294.55363      1485.0374     -2256.3489     -1877.6739    
    204500   290.99603     -152.32261     -2314.6435     -1939.6645    
    205000   310.00097      448.65015     -2308.2275     -1906.9938    
    205500   310.93347      884.34103     -2284.0232     -1884.8052    
    206000   297.87405     -301.80753     -2338.457      -1954.5458    
    206500   290.13556      876.52215     -2306.5031     -1934.2909    
    207000   298.1527       146.02671     -2290.1148     -1903.8508    
    207500   316.40492      1257.8072     -2349.7231     -1940.2248    
    208000   299.82344     -106.67567     -2344.8265     -1956.6408    
    208500   291.01191      1330.0812     -2294.6306     -1917.9551    
    209000   309.62525      1632.3359     -2313.027      -1913.8959    
    209500   308.87005      149.20876     -2353.8924     -1955.2918    
    210000   294.20955      1846.7106     -2335.313      -1954.5929    
    210500   304.08497     -390.85565     -2295.7055     -1903.4331    
    211000   295.69325     -1857.7765     -2319.9138     -1938.0433    
    211500   312.98606      542.80155     -2302.8004     -1898.8642    
    212000   298.54199     -157.44017     -2286.4015     -1900.045     
    212500   303.24581      710.33772     -2335.2329     -1943.9098    
    213000   303.5309       1322.3186     -2321.1977     -1928.7292    
    213500   319.0086       2681.0438     -2281.0796     -1869.2137    
    214000   291.29222      1345.1683     -2302.1922     -1926.3413    
    214500   296.3256       1425.194      -2327.5516     -1945.2426    
    215000   315.16625      1152.9435     -2324.9996     -1916.8482    
    215500   307.80041      478.99686     -2292.0336     -1895.5457    
    216000   293.69603      912.65238     -2336.132      -1957.117     
    216500   304.23215      1326.6756     -2321.7915     -1929.0071    
    217000   280.91356      271.94277     -2267.8774     -1905.4655    
    217500   316.1304       1235.7889     -2282.4615     -1874.8359    
    218000   294.5978       1759.9292     -2300.0433     -1920.1027    
    218500   287.64308      1458.9456     -2321.6731     -1949.3494    
    219000   281.50669      595.46953     -2344.5511     -1981.9308    
    219500   327.46393      289.70052     -2345.2582     -1922.1609    
    220000   293.82971     -213.87036     -2328.7971     -1949.6628    
    220500   277.09905      328.26133     -2336.9041     -1977.8868    
    221000   293.33473      1724.0023     -2292.7849     -1915.4831    
    221500   293.53801      896.04023     -2303.8661     -1924.7521    
    222000   295.12542      1885.9011     -2308.1264     -1928.2615    
    222500   294.79452      62.783115     -2334.3973     -1953.9637    
    223000   314.50038     -948.85301     -2336.8884     -1931.5009    
    223500   314.14296      1850.8226     -2326.5756     -1920.1396    
    224000   289.16253     -315.08914     -2296.639      -1922.0397    
    224500   299.71082      435.77977     -2305.4767     -1917.2625    
    225000   306.30657      1393.0791     -2346.8089     -1950.3552    
    225500   278.36458      2456.5217     -2352.6861     -1992.4462    
    226000   306.49518      1546.442      -2325.6264     -1929.6942    
    226500   303.85127      840.72361     -2294.9635     -1903.3105    
    227000   303.54852      1803.2174     -2295.4832     -1903.5024    
    227500   316.81304      227.68797     -2354.769      -1945.9582    
    228000   283.96301     -163.96521     -2317.4328     -1950.862     
    228500   309.33938     -301.62714     -2297.4122     -1897.4331    
    229000   285.90744      943.30859     -2296.2584     -1927.0501    
    229500   299.2786      -14.708401     -2336.7196     -1951.4458    
    230000   288.39973      308.62914     -2294.9771     -1923.5531    
    230500   292.65402      889.89835     -2288.0026     -1912.4023    
    231000   307.84794      522.47552     -2326.3002     -1929.2227    
    231500   280.59955      216.13147     -2322.6787     -1962.0605    
    232000   318.4441       1935.7674     -2325.8232     -1915.2704    
    232500   291.3003       612.94111     -2309.4893     -1933.9375    
    233000   309.58046      0.84149582    -2286.9519     -1887.9657    
    233500   299.63565      269.17143     -2289.3503     -1903.127     
    234000   305.48838      482.11689     -2331.0822     -1936.7588    
    234500   297.75257      724.00063     -2347.0892     -1961.41      
    235000   284.67917      570.27453     -2347.9065     -1980.1685    
    235500   305.74452     -1094.2894     -2312.9281     -1919.1514    
    236000   310.14782     -510.59193     -2320.4189     -1920.3689    
    236500   299.86392      1978.3302     -2353.4858     -1966.4927    
    237000   291.58581      563.98126     -2309.4748     -1932.9371    
    237500   290.5133       1411.9911     -2287.8511     -1913.0628    
    238000   296.3545       314.09648     -2328.6801     -1945.8653    
    238500   278.92075      257.09168     -2345.0086     -1984.9779    
    239000   304.45518      2347.4        -2344.3092     -1951.161     
    239500   316.41597      2546.1108     -2324.2937     -1914.6408    
    240000   279.00489     -431.37102     -2318.3503     -1958.2585    
    240500   297.59052      288.65642     -2330.6663     -1945.7075    
    241000   306.79601     -448.52951     -2321.698      -1924.8637    
    241500   317.09595      3215.053      -2292.8436     -1883.3937    
    242000   296.00336      1445.0445     -2261.1723     -1878.3696    
    242500   304.88647     -286.61952     -2327.8432     -1933.9458    
    243000   291.64718     -57.962328     -2337.5629     -1962.6783    
    243500   302.71918      1730.3326     -2309.6486     -1919.6837    
    244000   303.06586      843.39796     -2310.3132     -1918.0355    
    244500   282.60044      1319.3776     -2339.5845     -1973.4747    
    245000   291.72853     -201.41174     -2321.2194     -1943.3398    
    245500   312.2547       2332.0796     -2331.4863     -1929.6859    
    246000   313.06013      1600.3552     -2307.8713     -1904.0786    
    246500   331.06691      478.44321     -2316.0274     -1889.8298    
    247000   301.82245      847.34081     -2321.9086     -1932.9842    
    247500   301.11365      2447.964      -2323.9647     -1935.5804    
    248000   292.67908      1082.781      -2355.9017     -1978.8246    
    248500   310.54876      1054.2347     -2349.2901     -1948.0457    
    249000   308.0362       80.093175     -2338.2712     -1940.3045    
    249500   289.68424     -500.9482      -2353.4568     -1980.5255    
    250000   285.60435      2361.7426     -2321.4446     -1953.5433    
    250500   314.19608     -169.88212     -2333.528      -1927.8454    
    251000   281.74728      973.64296     -2300.015      -1936.4229    
    251500   288.77879     -187.85905     -2310.9007     -1936.9689    
    252000   300.74549      672.18732     -2296.6412     -1908.8228    
    252500   317.45437     -824.2042      -2285.8388     -1876.4111    
    253000   294.5016       241.21329     -2285.6169     -1906.184     
    253500   299.55612      1061.1585     -2329.4016     -1942.6879    
    254000   288.13361      283.51462     -2349.3684     -1976.065     
    254500   314.80251      1658.4075     -2342.8603     -1935.9112    
    255000   300.96615     -170.16958     -2310.2637     -1921.8511    
    255500   301.3172      -173.4917      -2338.2119     -1949.8082    
    256000   304.93699      1234.3393     -2358.4811     -1963.8695    
    256500   303.48654      1743.036      -2300.4082     -1908.3406    
    257000   295.43017      162.7216      -2298.4207     -1917.16      
    257500   271.40488      977.14531     -2329.1646     -1977.6405    
    258000   285.64288      1102.4579     -2317.4831     -1948.5686    
    258500   293.50453      366.16429     -2301.5848     -1923.2105    
    259000   321.60709      743.06725     -2289.6849     -1874.9339    
    259500   281.42794      1409.8097     -2295.9137     -1932.9348    
    260000   300.35823      1375.9526     -2314.4346     -1925.3968    
    260500   312.08804      1229.3727     -2299.6197     -1896.4998    
    261000   321.08349      1007.3922     -2274.737      -1859.9461    
    261500   290.38504      1366.8419     -2297.8878     -1921.8737    
    262000   293.10072      642.80684     -2319.5878     -1941.016     
    262500   292.6841       90.294804     -2324.1206     -1947.2352    
    263000   305.54291      1456.3362     -2300.209      -1905.7815    
    263500   297.86255      298.02145     -2336.8188     -1952.5766    
    264000   286.12039      1437.2712     -2309.7588     -1939.0675    
    264500   290.76101      2130.9904     -2294.7401     -1919.5592    
    265000   293.68478      2393.5069     -2301.3591     -1922.6404    
    265500   284.4525       456.05062     -2320.9449     -1953.7794    
    266000   311.60215      381.01711     -2307.2768     -1904.4597    
    266500   297.08737     -20.25628      -2305.0268     -1921.8043    
    267000   293.78313      317.33384     -2346.7706     -1967.8117    
    267500   301.80246      360.57459     -2307.839      -1920.7635    
    268000   299.19613      399.56436     -2312.4154     -1926.4258    
    268500   284.07446     -691.4227      -2334.8378     -1968.3816    
    269000   303.85943      1447.1303     -2326.8803     -1935.3891    
    269500   301.83344      323.95523     -2297.1855     -1907.694     
    270000   287.50036      1524.0505     -2323.5121     -1954.0218    
    270500   297.91125      678.44483     -2327.0289     -1945.1762    
    271000   281.22713      951.67707     -2293.3178     -1931.2279    
    271500   308.31827      902.37701     -2274.1545     -1878.4331    
    272000   306.16217      1614.7941     -2321.7576     -1928.0666    
    272500   305.00825      1110.4315     -2332.0127     -1939.6874    
    273000   300.59627      993.60962     -2304.786      -1917.8531    
    273500   302.52854      70.715624     -2266.0093     -1876.4326    
    274000   303.50258      889.32613     -2319.0843     -1929.8752    
    274500   290.64998      2149.5213     -2303.5015     -1929.8751    
    275000   314.41962      226.86406     -2284.3821     -1879.5754    
    275500   295.63518      1931.1367     -2308.2667     -1926.4583    
    276000   302.103        112.10736     -2336.184      -1947.5404    
    276500   292.90592      486.9986      -2269.7446     -1894.4666    
    277000   283.20981     -94.452721     -2272.3259     -1908.4082    
    277500   295.35677      1204.7431     -2299.787      -1919.4125    
    278000   305.40519     -742.99623     -2310.1756     -1917.0167    
    278500   298.89017      1157.5017     -2285.6968     -1901.356     
    279000   295.23625     -66.946799     -2284.7257     -1904.8315    
    279500   298.80714      2112.1999     -2334.8762     -1950.5617    
    280000   302.82062      1794.6026     -2334.7904     -1945.6255    
    280500   305.24424      2286.5526     -2320.8468     -1928.1527    
    281000   289.94161     -279.75032     -2322.4658     -1949.1862    
    281500   275.98169      1461.3778     -2349.1818     -1994.5487    
    282000   292.50014      582.30437     -2315.2208     -1938.4008    
    282500   302.57725      1461.3335     -2289.7259     -1899.9162    
    283000   301.06719      1176.3078     -2298.7748     -1911.776     
    283500   285.80779      525.58715     -2313.6642     -1946.5147    
    284000   291.85005      1506.2748     -2281.4917     -1907.5764    
    284500   310.31312      1620.2502     -2308.9334     -1909.4866    
    285000   297.08663     -336.00039     -2301.0035     -1918.8377    
    285500   297.44923      891.89596     -2328.5308     -1946.6485    
    286000   299.73162      2171.8666     -2367.6008     -1981.5206    
    286500   299.38374      686.7243      -2305.4567     -1920.5424    
    287000   281.71763      389.32093     -2296.9116     -1935.6179    
    287500   271.2295       1320.533      -2338.7509     -1989.1954    
    288000   308.45076      2577.2281     -2329.6172     -1932.6374    
    288500   313.81903      1727.2893     -2300.8501     -1897.3076    
    289000   290.56968     -868.31132     -2297.6079     -1923.1553    
    289500   300.09308      830.61019     -2344.5928     -1957.3813    
    290000   293.3008       822.61243     -2278.515      -1899.7248    
    290500   293.61798      1161.8776     -2287.5162     -1909.086     
    291000   300.286        1009.0274     -2333.0586     -1946.4494    
    291500   303.86767      303.09746     -2315.7261     -1924.4303    
    292000   331.9285       583.75014     -2293.4232     -1864.1449    
    292500   319.48616      1542.4606     -2318.1125     -1905.0754    
    293000   302.72889      265.96598     -2324.9137     -1933.0763    
    293500   313.05467      326.64575     -2335.8303     -1931.1406    
    294000   285.19874      1453.7393     -2325.1577     -1957.3456    
    294500   340.43952      2722.6796     -2351.0758     -1912.4567    
    295000   312.514        990.71783     -2320.6474     -1919.0604    
    295500   287.15617      327.54234     -2342.6323     -1972.3488    
    296000   289.66511      985.01766     -2326.0838     -1952.9159    
    296500   303.64348      482.10375     -2322.5991     -1932.033     
    297000   281.32056      1235.6916     -2317.0515     -1954.5041    
    297500   302.74348      1470.0549     -2359.3514     -1967.6898    
    298000   320.47532      1610.6987     -2335.1923     -1920.9773    
    298500   288.33427     -517.89317     -2323.4064     -1951.0933    
    299000   284.75295      387.70572     -2356.0504     -1988.4615    
    299500   300.03661      350.38916     -2331.0313     -1944.6262    
    300000   290.04918      1054.1801     -2320.0798     -1946.6996    
    300500   291.6719       723.03535     -2268.6047     -1891.5138    
    301000   302.78509     -325.56308     -2304.8914     -1913.4699    
    301500   308.0077       1452.3209     -2325.6753     -1927.219     
    302000   285.08995     -435.85641     -2319.251      -1953.1499    
    302500   320.32517     -199.87125     -2315.8964     -1901.8154    
    303000   295.43273      473.80529     -2307.3795     -1924.7409    
    303500   300.10937      1462.0347     -2315.7767     -1927.7498    
    304000   312.7195       1889.2715     -2348.3117     -1943.351     
    304500   283.4206      -452.29955     -2343.5361     -1978.4239    
    305000   316.36189      602.63891     -2323.8196     -1915.095     
    305500   301.69701      1886.43       -2282.0456     -1893.0293    
    306000   308.43321      1126.2151     -2343.7715     -1944.6599    
    306500   301.15975      688.12174     -2322.2313     -1933.519     
    307000   299.17003     -701.29457     -2302.3286     -1915.7657    
    307500   285.44953      1238.6663     -2304.4143     -1935.5549    
    308000   305.44234      1401.4165     -2368.8171     -1973.6085    
    308500   305.21235      359.01408     -2329.7625     -1934.4671    
    309000   300.75773      816.39654     -2310.5392     -1922.2333    
    309500   312.26034      263.95594     -2333.4596     -1930.3108    
    310000   305.9708      -136.46741     -2349.1877     -1954.6058    
    310500   309.79414     -2.4217128     -2297.0718     -1897.7373    
    311000   289.53992      893.89997     -2307.1067     -1932.0358    
    311500   308.42237      1223.5259     -2330.4236     -1930.9759    
    312000   277.58132     -266.85882     -2327.4634     -1967.7959    
    312500   281.56806      1363.8854     -2334.6843     -1970.0628    
    313000   304.83859      840.27936     -2317.6049     -1922.8986    
    313500   297.33538      185.84283     -2318.3685     -1933.2341    
    314000   289.08748     -50.434684     -2334.5055     -1960.1683    
    314500   311.20253     -74.337432     -2309.3752     -1907.7716    
    315000   311.70622      1096.8682     -2327.2504     -1925.3118    
    315500   278.48427      1303.4838     -2331.0069     -1973.6217    
    316000   288.82451      619.69753     -2306.9038     -1933.8878    
    316500   299.15432      930.7285      -2314.4009     -1928.7732    
    317000   293.5733       2184.6815     -2280.7223     -1904.2939    
    317500   310.58677      1653.2043     -2295.1954     -1896.4636    
    318000   296.32001      38.488132     -2315.0337     -1933.6896    
    318500   294.15043      1587.5359     -2302.8322     -1922.321     
    319000   317.15091     -623.22647     -2321.2936     -1914.0347    
    319500   287.42525      1488.0151     -2328.623      -1957.015     
    320000   286.35066      1032.8884     -2280.6772     -1911.9813    
    320500   313.50189     -449.25657     -2303.9545     -1900.3011    
    321000   282.29214      707.71267     -2315.3828     -1953.1722    
    321500   290.93569      216.30954     -2315.8007     -1939.3462    
    322000   305.69553      224.38639     -2308.8114     -1912.8106    
    322500   288.05008      243.6301      -2297.6079     -1924.7006    
    323000   308.69544      594.72727     -2314.7665     -1916.5221    
    323500   299.90025      1742.4856     -2277.8936     -1890.8817    
    324000   289.55407     -79.531015     -2309.5143     -1938.0379    
    324500   303.85351      586.75219     -2302.8765     -1911.3489    
    325000   314.70584      1247.2191     -2312.5412     -1908.8111    
    325500   298.66804      1271.684      -2340.7858     -1956.1192    
    326000   291.1577      -2.1088236     -2302.0313     -1927.0147    
    326500   288.7155       1754.2342     -2288.1563     -1917.616     
    327000   296.83925      570.61037     -2277.3424     -1893.8673    
    327500   317.97626      1443.7039     -2290.6849     -1879.1619    
    328000   292.06409      654.4351      -2287.8388     -1911.2066    
    328500   298.27634      184.40331     -2320.0464     -1936.5795    
    329000   295.54847      586.90154     -2361.1354     -1978.2734    
    329500   297.35408      1079.1202     -2326.9462     -1945.1041    
    330000   301.5159       2152.2167     -2310.252      -1919.768     
    330500   300.9865       2137.8061     -2307.8902     -1919.3143    
    331000   269.12147      1154.0264     -2302.9915     -1954.9098    
    331500   298.45871      1110.3375     -2282.4087     -1897.1596    
    332000   300.42131      1448.4509     -2287.8502     -1899.9819    
    332500   298.45024     -150.0023      -2338.0655     -1952.0828    
    333000   288.8004      -300.09617     -2302.2454     -1929.481     
    333500   290.53807      424.54331     -2299.781      -1923.8884    
    334000   330.1775       1354.7276     -2306.8266     -1882.1704    
    334500   298.8695       1152.2788     -2300.7756     -1916.6385    
    335000   295.15591      2418.0948     -2310.225      -1931.3543    
    335500   299.95408      205.39331     -2274.0053     -1886.7957    
    336000   304.91552      1257.5368     -2315.1797     -1921.4988    
    336500   305.73151      1133.6917     -2326.601      -1930.6458    
    337000   303.97107      1686.38       -2301.4499     -1909.3385    
    337500   307.04699      849.40571     -2277.3903     -1879.7861    
    338000   310.72776      1571.2457     -2283.0947     -1883.2603    
    338500   295.97552      713.83076     -2318.2804     -1936.002     
    339000   304.75714      457.89984     -2299.1806     -1905.7045    
    339500   320.28693      1768.8721     -2270.1248     -1856.9823    
    340000   309.3064       579.63436     -2312.4271     -1913.639     
    340500   288.75459      1493.1889     -2316.9448     -1943.1803    
    341000   274.3968       1372.6472     -2300.1461     -1946.9293    
    341500   296.66687      1481.9041     -2284.2869     -1901.5936    
    342000   302.33628      2844.9132     -2336.5799     -1948.2894    
    342500   298.27865     -868.05369     -2321.4367     -1936.7669    
    343000   300.97075     -535.45078     -2320.2803     -1933.6616    
    343500   299.59892      1703.4056     -2324.034      -1937.6172    
    344000   302.28503      1285.9952     -2310.7137     -1920.3297    
    344500   300.75164      1377.4165     -2293.8758     -1904.261     
    345000   309.714        653.62893     -2331.8021     -1930.9199    
    345500   288.2672       2445.0502     -2295.6949     -1923.4046    
    346000   319.82271      275.84808     -2288.1162     -1874.0562    
    346500   300.62948      440.74565     -2314.29       -1924.7386    
    347000   304.99227      1756.4985     -2319.2821     -1925.1531    
    347500   318.49459      841.24589     -2329.9564     -1918.7349    
    348000   288.61649      465.36994     -2327.2113     -1953.2665    
    348500   303.26741      1905.2751     -2297.72       -1905.1172    
    349000   312.68306      15.436832     -2318.7857     -1915.1278    
    349500   299.63272     -416.58823     -2346.8752     -1958.8873    
    350000   285.14182      1915.8319     -2326.1906     -1956.7477    
    350500   300.26456      1596.3173     -2306.2449     -1917.2207    
    351000   301.79503      1649.252      -2330.7704     -1939.7632    
    351500   288.05223      1406.367      -2349.5707     -1977.5486    
    352000   323.40578      1495.7641     -2343.7606     -1925.4033    
    352500   301.52533      734.41273     -2303.3087     -1913.9763    
    353000   327.05859      577.27117     -2307.736      -1885.5029    
    353500   288.13601      138.21033     -2307.6612     -1936.7237    
    354000   293.8467       1123.0884     -2315.9599     -1936.5159    
    354500   293.77713      3090.8965     -2319.8039     -1939.0706    
    355000   309.35739      1988.8338     -2299.5074     -1899.9305    
    355500   308.35456      1047.8401     -2337.8789     -1939.671     
    356000   306.20168      1307.7955     -2341.3473     -1945.7932    
    356500   302.99122      1477.6941     -2293.293      -1902.3627    
    357000   291.71183      303.93236     -2262.1367     -1885.2288    
    357500   291.37121      2425.5728     -2323.5302     -1947.3768    
    358000   292.88395      2509.6311     -2311.0174     -1932.56      
    358500   294.01073      814.08728     -2286.9481     -1906.0999    
    359000   298.40095     -264.16577     -2320.3804     -1933.8573    
    359500   315.05926     -822.8759      -2329.1382     -1921.5913    
    360000   313.30137     -2.2138006     -2306.9051     -1903.7278    
    360500   296.5206      -263.48095     -2322.9931     -1940.4828    
    361000   284.72436      376.33456     -2324.4359     -1957.7176    
    361500   304.99698      420.79564     -2302.0026     -1908.7926    
    362000   304.20878      1173.4457     -2309.1989     -1917.2759    
    362500   308.98268     -192.41064     -2361.2314     -1963.2819    
    363000   294.71846      653.03855     -2310.5701     -1928.8124    
    363500   307.87236      1733.0636     -2272.1717     -1873.6923    
    364000   305.98992      2325.8973     -2314.1708     -1919.1062    
    364500   281.81739     -785.34767     -2303.8483     -1939.8618    
    365000   299.86537      1936.5305     -2291.3459     -1904.5688    
    365500   323.41915     -243.42696     -2323.0034     -1905.155     
    366000   280.44722      1827.444      -2291.5141     -1929.6103    
    366500   295.37149      731.90634     -2321.0397     -1940.2637    
    367000   291.85345      542.00258     -2344.0723     -1966.9482    
    367500   312.56541      1729.0029     -2320.9807     -1918.1188    
    368000   285.59308      35.904164     -2296.5978     -1928.0974    
    368500   297.37492     -755.94568     -2347.9206     -1964.2548    
    369000   312.93779      464.24202     -2315.6346     -1913.7475    
    369500   314.1317       1064.6111     -2337.5329     -1934.1495    
    370000   303.82193      19.83178      -2355.3856     -1963.3867    
    370500   281.44762     -294.53613     -2297.364      -1934.6364    
    371000   301.15335      1605.3449     -2301.1415     -1911.3078    
    371500   287.29936      1005.6702     -2333.4366     -1961.6587    
    372000   299.4204       343.06546     -2331.4217     -1945.1912    
    372500   287.05617      1288.8106     -2291.1763     -1919.6292    
    373000   316.87591      636.838       -2330.7529     -1920.7076    
    373500   292.02615     -880.11091     -2346.2054     -1968.4299    
    374000   296.31189      1911.2261     -2300.8332     -1917.4438    
    374500   293.80075      1601.2846     -2300.6005     -1922.1784    
    375000   296.67621      726.2954      -2314.3187     -1932.0894    
    375500   288.6737      -47.022658     -2331.6063     -1959.443     
    376000   305.47474      171.74504     -2308.0289     -1914.2596    
    376500   306.79091      2553.3806     -2301.6548     -1905.9777    
    377000   279.35113      1450.7015     -2315.7927     -1955.6034    
    377500   284.021        2050.6307     -2340.6425     -1974.4035    
    378000   302.56004      58.372076     -2333.9125     -1943.1313    
    378500   307.74067      761.78153     -2335.2315     -1938.3126    
    379000   283.6515       703.62351     -2311.6045     -1946.0421    
    379500   291.61694      344.68469     -2311.0811     -1935.2877    
    380000   321.43869      399.27368     -2299.5119     -1884.0318    
    380500   306.92661      1679.3689     -2310.6955     -1914.3732    
    381000   289.48431      1707.125      -2306.018      -1932.2004    
    381500   295.65248      1657.0111     -2278.4924     -1897.6456    
    382000   280.20348     -400.31443     -2303.6358     -1942.5876    
    382500   286.34258      1849.135      -2324.9743     -1956.3376    
    383000   300.40605      1597.9688     -2281.9771     -1896.1613    
    383500   301.85959      930.55583     -2317.9563     -1929.0331    
    384000   287.96749     -989.50329     -2325.2098     -1952.9882    
    384500   305.65188      1714.1855     -2333.8405     -1938.3398    
    385000   305.57205      1008.1005     -2300.8031     -1907.2049    
    385500   301.5674       1894.5287     -2257.6673     -1868.6696    
    386000   304.7856       844.69181     -2317.7203     -1925.113     
    386500   285.82596      607.39775     -2303.3646     -1933.4274    
    387000   296.93872      2384.0766     -2271.8254     -1888.0072    
    387500   294.14006      872.22452     -2313.1361     -1934.2945    
    388000   307.98245      1433.0221     -2335.6432     -1937.0746    
    388500   308.46958      888.54951     -2309.4507     -1909.9636    
    389000   302.21632      150.70326     -2287.0644     -1897.3371    
    389500   302.87773      1103.6975     -2331.3537     -1940.7192    
    390000   317.15474     -657.36378     -2314.1582     -1905.9684    
    390500   296.32664      246.38503     -2321.7174     -1939.0773    
    391000   310.77993      874.27339     -2345.7776     -1944.434     
    391500   314.32853      2726.6531     -2303.9218     -1897.8015    
    392000   335.9907       1211.4478     -2271.6994     -1837.8701    
    392500   312.63134      1786.2587     -2302.2584     -1898.558     
    393000   284.01832      556.60171     -2298.818      -1932.1691    
    393500   290.16139      249.27608     -2288.7809     -1914.1882    
    394000   311.26191      1754.4311     -2279.2518     -1877.4969    
    394500   283.04206      2111.4028     -2301.6669     -1935.0563    
    395000   300.73297      605.19856     -2340.5964     -1952.7661    
    395500   322.78063      423.29453     -2345.8778     -1929.0019    
    396000   298.77089      1079.6321     -2276.8272     -1891.1517    
    396500   324.69288      637.2687      -2279.451      -1859.0549    
    397000   331.17457     -442.60482     -2349.965      -1921.5952    
    397500   298.81026      1821.5931     -2331.0486     -1944.0064    
    398000   295.04282     -464.18758     -2330.3866     -1949.4936    
    398500   285.13092      1516.5596     -2289.2695     -1921.5881    
    399000   303.30478      839.26163     -2297.4544     -1906.2807    
    399500   299.01367      738.31008     -2340.1666     -1953.2146    
    400000   301.76804      129.05923     -2318.3596     -1927.7303    
    400500   313.48773      1475.1366     -2327.4377     -1921.3619    
    401000   293.47684      811.73605     -2343.4343     -1963.3853    
    401500   322.57597      934.6318      -2332.0978     -1915.6464    
    402000   294.27468      885.06903     -2298.4668     -1918.6649    
    402500   308.30628      1297.5818     -2327.1439     -1927.9346    
    403000   307.43478      1115.1881     -2326.1092     -1928.6529    
    403500   289.5071       1671.9134     -2290.7844     -1917.426     
    404000   305.24699      971.86172     -2307.9983     -1912.9098    
    404500   298.08802      1940.6972     -2346.3766     -1960.5433    
    405000   291.90065      719.02358     -2306.6729     -1928.756     
    405500   306.25278      2122.6216     -2291.7053     -1896.8039    
    406000   306.26909     -634.76328     -2339.5471     -1944.5221    
    406500   314.89915      1540.7367     -2344.2606     -1937.6843    
    407000   322.3233      -234.77734     -2280.727      -1864.004     
    407500   301.4295       510.73461     -2278.9192     -1888.6794    
    408000   299.92559      1212.7989     -2326.5209     -1938.866     
    408500   283.47558      803.24888     -2326.235      -1959.1367    
    409000   319.05099      1694.4473     -2306.5244     -1894.7946    
    409500   318.38251      1391.2884     -2336.8392     -1924.8488    
    410000   294.47271      2235.6413     -2325.4568     -1944.2306    
    410500   306.22328      1037.4872     -2319.9508     -1925.0767    
    411000   293.71033      497.87537     -2311.0996     -1931.8796    
    411500   300.26299      706.96963     -2352.4099     -1965.1195    
    412000   281.50332      602.40467     -2347.7262     -1984.247     
    412500   288.74917      1404.6269     -2296.3524     -1925.4651    
    413000   308.31883      1027.6761     -2304.9124     -1906.9694    
    413500   300.28429      1387.94       -2331.792      -1943.9663    
    414000   309.43176      1460.5        -2340.7182     -1940.0306    
    414500   295.44367      1956.655      -2289.819      -1907.2429    
    415000   299.17984      2384.5069     -2298.8043     -1912.1674    
    415500   282.04743      185.22011     -2330.2537     -1967.7886    
    416000   306.55832      313.51795     -2320.7001     -1925.2468    
    416500   300.01747      475.86708     -2312.1401     -1926.6477    
    417000   290.20958     -56.143066     -2347.5507     -1974.8619    
    417500   315.43641      1933.7679     -2333.2466     -1925.8827    
    418000   291.12883      782.54658     -2293.1278     -1917.492     
    418500   332.75608      983.87636     -2304.6519     -1873.7822    
    419000   311.97673      1668.4431     -2327.3134     -1926.1095    
    419500   300.23232      1098.9918     -2321.4614     -1935.6469    
    420000   306.53166      871.08507     -2314.3963     -1919.0402    
    420500   300.31492      665.46092     -2296.3755     -1907.435     
    421000   293.81131      1051.5993     -2327.5183     -1947.8522    
    421500   277.87885     -358.18841     -2354.3267     -1995.5871    
    422000   274.89956      2189.5726     -2300.9194     -1945.2527    
    422500   303.00145      1578.8618     -2321.1757     -1928.7089    
    423000   282.56724      1575.644      -2343.9068     -1977.7904    
    423500   294.54529      2135.858      -2307.1572     -1927.32      
    424000   297.24935      195.89325     -2301.1941     -1917.4025    
    424500   294.67548      1085.0362     -2312.1614     -1930.8655    
    425000   307.55619      425.85332     -2373.7455     -1976.6836    
    425500   277.62025     -431.5956      -2287.6865     -1929.1187    
    426000   307.99053      1001.1445     -2322.9498     -1925.141     
    426500   295.69107      970.81826     -2325.5305     -1943.4846    
    427000   292.25039      1369.3224     -2298.4166     -1920.0959    
    427500   309.57759      869.8477      -2321.2839     -1922.3791    
    428000   296.047        630.9314      -2330.7621     -1949.1666    
    428500   295.07948      1715.9894     -2291.831      -1911.285     
    429000   295.99742      520.25412     -2290.2028     -1908.7076    
    429500   302.86203     -588.64384     -2329.0553     -1936.8013    
    430000   277.81989      1048.0972     -2340.6974     -1981.8785    
    430500   298.00384      1411.098      -2354.875      -1968.7134    
    431000   293.49304      60.937267     -2305.9994     -1925.5642    
    431500   308.20024      826.75005     -2288.2335     -1890.1708    
    432000   318.33667      1572.7128     -2305.2205     -1894.1772    
    432500   292.71432     -358.30587     -2315.3507     -1936.3975    
    433000   294.12178     -661.38582     -2301.2485     -1921.8172    
    433500   303.90843      1480.0291     -2282.2802     -1890.4687    
    434000   296.72775      2108.2227     -2328.4959     -1945.7191    
    434500   285.313        1628.5994     -2319.152      -1950.1206    
    435000   300.31697      1270.0469     -2294.7983     -1906.1543    
    435500   322.58803      1424.0831     -2287.8487     -1871.2624    
    436000   297.79707      881.85056     -2294.7975     -1910.0366    
    436500   297.28893      1656.8762     -2332.0934     -1948.2587    
    437000   290.87117     -241.89632     -2310.0869     -1933.9408    
    437500   324.0538       569.9596      -2313.203      -1893.3765    
    438000   290.99986      845.47398     -2306.5474     -1930.7848    
    438500   301.91918      1166.5895     -2313.8719     -1922.8413    
    439000   276.93803      1.7308325     -2312.8607     -1955.5379    
    439500   305.13755      1667.0726     -2352.7819     -1957.5287    
    440000   315.23399      1643.5579     -2318.1942     -1909.7495    
    440500   289.74496     -529.95281     -2333.6095     -1958.1465    
    441000   296.42956      594.72819     -2327.7643     -1943.9612    
    441500   284.75285      692.75931     -2300.808      -1933.3948    
    442000   302.61438      1090.9434     -2317.7673     -1927.0121    
    442500   315.4867      -714.8304      -2322.9482     -1914.8417    
    443000   288.69749      1476.612      -2280.3155     -1907.666     
    443500   277.88423     -179.11325     -2316.3317     -1958.9469    
    444000   291.74533      473.35072     -2301.4884     -1925.7173    
    444500   303.54732     -452.57546     -2293.5263     -1901.8773    
    445000   309.5808       1298.8135     -2344.7598     -1945.5083    
    445500   289.14678      1130.448      -2331.6583     -1957.5244    
    446000   316.05613      1603.8758     -2333.9105     -1927.9948    
    446500   311.24476      977.31064     -2300.3517     -1899.1968    
    447000   286.62416     -103.45113     -2323.4415     -1954.3204    
    447500   304.62619      1248.2085     -2322.8845     -1930.2094    
    448000   298.23577      907.35171     -2302.3314     -1916.5038    
    448500   288.1181       918.62594     -2338.3442     -1965.4508    
    449000   295.98063      677.10426     -2347.8884     -1965.7356    
    449500   314.18278      879.50786     -2337.3351     -1932.0463    
    450000   302.1053       2023.7192     -2286.9773     -1897.0145    
    450500   308.50986      489.52443     -2294.3731     -1895.9141    
    451000   298.07834     -103.26563     -2318.4524     -1932.6547    
    451500   305.30523      1376.9292     -2287.6342     -1892.1607    
    452000   329.13428      207.79854     -2301.274      -1876.2516    
    452500   298.55539      1401.8679     -2311.8097     -1926.6415    
    453000   306.02608      2651.9248     -2300.226      -1905.1642    
    453500   303.40995      1262.533      -2313.1212     -1923.5684    
    454000   295.32961     -718.30069     -2330.0369     -1949.2015    
    454500   286.19914      1739.9668     -2295.2813     -1924.4063    
    455000   319.70422      270.88948     -2284.5124     -1871.8141    
    455500   290.75983      1466.9158     -2304.0133     -1928.944     
    456000   286.42599      1279.24       -2323.894      -1955.1624    
    456500   311.98986      904.80062     -2294.3833     -1892.8475    
    457000   328.82557      1508.6234     -2335.7036     -1911.4088    
    457500   289.18514      833.53007     -2313.8131     -1940.5961    
    458000   291.71074      2163.1363     -2294.3888     -1917.8094    
    458500   315.32293      2360.7985     -2326.5486     -1919.1098    
    459000   293.19327     -189.08184     -2315.8625     -1936.2877    
    459500   301.4584       414.22551     -2312.7161     -1922.553     
    460000   303.08508      1579.3131     -2284.1574     -1892.7809    
    460500   290.93473      1355.3945     -2321.3635     -1946.2459    
    461000   299.24018     -504.7034      -2329.1112     -1943.683     
    461500   312.68783     -41.806598     -2288.2686     -1885.4695    
    462000   312.6079       405.6704      -2299.8521     -1896.9732    
    462500   272.88027     -37.853984     -2281.7278     -1930.1698    
    463000   294.40474      1288.8697     -2322.8153     -1941.7394    
    463500   282.94158      119.49509     -2341.4716     -1976.963     
    464000   296.21255      809.58569     -2317.1283     -1933.9618    
    464500   283.53253      232.1967      -2274.606      -1909.402     
    465000   331.04166      268.42879     -2286.9302     -1860.3267    
    465500   304.07801      186.94402     -2299.3185     -1906.9813    
    466000   303.82583      1379.0012     -2324.8824     -1932.7525    
    466500   310.67327      2158.8957     -2314.6261     -1913.6099    
    467000   306.01634      1822.3047     -2292.2639     -1896.6535    
    467500   306.53311     -500.23072     -2337.7856     -1942.3269    
    468000   301.72242     -133.83342     -2303.2484     -1913.8956    
    468500   311.81923      459.18076     -2315.3376     -1912.966     
    469000   289.73978      712.10691     -2291.9005     -1918.114     
    469500   278.36976     -868.80578     -2326.4872     -1966.1034    
    470000   304.4621       1180.6141     -2320.71       -1927.0911    
    470500   310.63839      1738.8636     -2309.2587     -1910.6694    
    471000   277.12542     -267.91769     -2301.8926     -1946.4274    
    471500   298.41819      2072.5894     -2332.9606     -1950.0047    
    472000   313.03917      1542.8719     -2294.7407     -1892.2331    
    472500   316.34227      291.48976     -2328.8546     -1921.6184    
    473000   274.45223      642.94222     -2302.0769     -1949.0208    
    473500   289.93146      1505.4675     -2310.8776     -1937.7266    
    474000   315.42916      564.01028     -2314.3671     -1907.9211    
    474500   307.35178      882.32916     -2282.7862     -1886.8461    
    475000   295.9854       189.64065     -2301.7642     -1920.342     
    475500   310.81484     -75.430955     -2322.3789     -1920.4313    
    476000   281.41308      1767.5614     -2331.8207     -1968.3298    
    476500   316.84507      926.66808     -2350.9843     -1941.1277    
    477000   300.05706      424.47556     -2311.6583     -1924.7812    
    477500   302.51287      475.57501     -2316.3188     -1925.9055    
    478000   325.92375      2208.8264     -2304.5746     -1884.0305    
    478500   295.13456      1133.5201     -2299.9958     -1919.4187    
    479000   303.13935      800.10784     -2321.8333     -1930.2647    
    479500   301.51281      108.88015     -2273.0175     -1884.1125    
    480000   297.33341      1006.8346     -2316.9533     -1932.2698    
    480500   297.71637      272.86333     -2324.8479     -1939.6355    
    481000   295.82892      1173.0963     -2307.0093     -1924.0058    
    481500   297.31954      1170.9746     -2276.9561     -1893.107     
    482000   292.47716      1595.2325     -2321.7563     -1944.2367    
    482500   288.32435     -552.7171      -2311.9189     -1940.1655    
    483000   315.52408      706.81742     -2314.1953     -1907.2097    
    483500   318.02814      2658.7545     -2278.9844     -1868.7062    
    484000   306.82234      1365.4907     -2318.0255     -1923.7442    
    484500   297.36301      1792.2332     -2324.057      -1940.9758    
    485000   302.24069      2253.8343     -2280.4032     -1890.6675    
    485500   310.6141       561.34863     -2301.9364     -1901.3105    
    486000   291.09958      1318.5443     -2301.262      -1924.9547    
    486500   338.08683      898.75141     -2317.4064     -1879.9226    
    487000   308.57379      1363.4851     -2297.2598     -1897.8917    
    487500   301.93799      2215.8188     -2322.5979     -1931.9889    
    488000   302.49084      164.23557     -2335.3231     -1944.8262    
    488500   295.34485      1858.0078     -2297.9164     -1916.6958    
    489000   286.20424      784.53626     -2301.3164     -1933.9427    
    489500   283.14053      503.06333     -2344.418      -1979.1608    
    490000   287.196        438.46185     -2309.1564     -1938.4723    
    490500   308.41031     -302.56262     -2341.661      -1944.1149    
    491000   288.88176      1971.4974     -2341.0927     -1968.8897    
    491500   303.65924      1715.459      -2305.1068     -1913.8825    
    492000   299.41063      83.665187     -2327.1635     -1941.12      
    492500   271.03081      1703.2622     -2334.5153     -1984.2421    
    493000   299.57972      234.52178     -2311.172      -1924.6891    
    493500   277.8495       451.73854     -2284.3622     -1926.2198    
    494000   288.00971     -47.416807     -2350.2578     -1978.2147    
    494500   286.49218      47.898388     -2327.9936     -1959.7552    
    495000   305.54301      397.26076     -2318.1624     -1923.0427    
    495500   290.69053      1210.2973     -2303.6427     -1929.1908    
    496000   285.84585      2116.3574     -2335.8214     -1966.544     
    496500   304.47678      1216.8168     -2338.2627     -1946.2652    
    497000   319.59992      1604.5482     -2328.7671     -1917.2096    
    497500   296.4239       1697.5469     -2341.0251     -1959.1195    
    498000   290.2605       706.03294     -2325.3379     -1952.1396    
    498500   286.961        2015.9574     -2282.0569     -1912.96      
    499000   292.38067      1495.9696     -2326.7657     -1950.0876    
    499500   307.06368      944.76803     -2334.2796     -1938.464     
    500000   309.55532      520.93748     -2307.7243     -1909.1765    
    500500   292.12461     -95.731034     -2314.3235     -1937.8467    
    501000   291.6852       1234.636      -2255.6289     -1880.0584    
    501500   308.51232     -153.40828     -2320.1717     -1921.1265    
    502000   291.17716      176.7774      -2315.1239     -1938.0658    
    502500   321.39513      858.37313     -2307.5901     -1892.9464    
    503000   297.09869      1410.2752     -2287.7856     -1904.6217    
    503500   288.3425       1351.4841     -2297.2062     -1925.7058    
    504000   308.24003      14.434829     -2333.3111     -1935.3991    
    504500   307.4503       1243.0675     -2301.0017     -1903.0435    
    505000   303.91284      3137.8235     -2282.0344     -1888.2191    
    505500   296.23777      1505.7722     -2332.401      -1948.4975    
    506000   306.12436      881.36598     -2306.9499     -1912.1003    
    506500   297.22737      1562.7703     -2284.7858     -1899.7899    
    507000   295.01803      349.51761     -2335.7512     -1955.0668    
    507500   290.53877      837.51848     -2314.5842     -1939.3586    
    508000   296.95716      362.68164     -2293.9706     -1910.3506    
    508500   298.97299      1229.247      -2315.7889     -1930.3741    
    509000   293.64991     -44.822193     -2304.6797     -1927.6889    
    509500   301.54333      576.16249     -2290.6315     -1902.9308    
    510000   314.78178      1647.3709     -2298.9164     -1892.8134    
    510500   297.88192      1812.8172     -2318.4124     -1933.9173    
    511000   312.06864      930.10083     -2310.195      -1907.6647    
    511500   314.49785      577.8034      -2283.2328     -1877.348     
    512000   298.09674      1332.7145     -2305.7389     -1919.5086    
    512500   283.33771      1802.2852     -2313.4302     -1947.4535    
    513000   288.85828      1833.9562     -2332.5185     -1959.3942    
    513500   305.75066      102.18096     -2291.4662     -1896.5006    
    514000   323.07718      472.15786     -2314.4388     -1897.6227    
    514500   304.6984       1050.8162     -2332.5788     -1938.4045    
    515000   321.79952      1520.5934     -2352.8937     -1936.917     
    515500   289.75069      163.8126      -2320.0156     -1944.7001    
    516000   301.53525      1781.6638     -2282.6912     -1893.974     
    516500   315.57192      161.59962     -2331.783      -1924.3831    
    517000   307.78626      855.76534     -2331.6179     -1933.5351    
    517500   293.34999      2730.953      -2331.0919     -1953.9154    
    518000   286.99748      654.43079     -2269.844      -1901.4535    
    518500   282.05217      3674.1249     -2289.7506     -1925.4264    
    519000   289.67439      279.03013     -2313.1699     -1939.1362    
    519500   304.48135     -816.23187     -2313.0256     -1921.665     
    520000   310.76588      2334.7384     -2295.4656     -1893.9346    
    520500   280.81251      1197.5876     -2278.0339     -1916.9226    
    521000   285.45478      2055.7903     -2319.1604     -1951.0041    
    521500   305.40693      1653.8355     -2293.7306     -1900.2074    
    522000   308.84398      1023.3236     -2308.1326     -1910.0209    
    522500   298.90013      835.90996     -2335.9645     -1950.1331    
    523000   303.17402      376.74615     -2309.8492     -1919.1058    
    523500   304.97893      1619.682      -2306.7669     -1912.0524    
    524000   301.48601     -475.06597     -2308.6848     -1921.1287    
    524500   286.38945      2475.8114     -2277.7711     -1910.1735    
    525000   299.25916      515.46955     -2343.5371     -1957.7055    
    525500   296.67038      1863.3761     -2322.3912     -1938.3228    
    526000   314.90466      2204.2981     -2321.254      -1913.7184    
    526500   292.67907      513.69813     -2321.4835     -1942.96      
    527000   288.74857     -129.18603     -2357.742      -1985.0099    
    527500   294.17476      1395.3005     -2328.2524     -1949.0931    
    528000   311.56271     -299.12037     -2310.372      -1907.1377    
    528500   297.56582      2143.6176     -2290.1162     -1906.6071    
    529000   297.58386      523.57977     -2330.0994     -1947.3833    
    529500   304.8228       858.64875     -2299.4253     -1909.229     
    530000   289.85381      1426.8447     -2314.7238     -1942.3156    
    530500   278.66754      1294.7335     -2318.5329     -1960.7443    
    531000   301.86433      1210.3886     -2321.1968     -1932.8614    
    531500   292.09335      1146.552      -2298.4468     -1923.2616    
    532000   292.96047     -153.33676     -2288.4001     -1911.8357    
    532500   299.17028      447.16668     -2299.0181     -1914.5443    
    533000   297.87976     -280.5463      -2333.3482     -1949.4416    
    533500   292.44994      1061.915      -2335.1297     -1957.8907    
    534000   297.04332      1470.8943     -2301.4126     -1918.1103    
    534500   300.50222      1308.1648     -2329.9473     -1941.0885    
    535000   302.85822      261.4687      -2321.2932     -1929.1143    
    535500   305.62835      959.91404     -2293.6596     -1900.1063    
    536000   296.78906      216.39816     -2336.6007     -1953.4291    
    536500   286.79453      1092.3518     -2316.0581     -1945.2249    
    537000   315.56359     -161.51857     -2294.7845     -1887.9409    
    537500   312.12417      1147.7968     -2319.3751     -1917.1385    
    538000   283.42464      1972.905      -2316.1352     -1950.5263    
    538500   317.47231      719.48446     -2330.4081     -1922.7258    
    539000   317.02436      1472.2061     -2309.4181     -1900.4102    
    539500   294.89197      79.144541     -2333.7451     -1954.2268    
    540000   289.25949     -290.06145     -2320.5374     -1947.445     
    540500   306.23337      1397.0807     -2329.3608     -1934.1258    
    541000   329.34314      975.4138      -2337.7393     -1912.8753    
    541500   290.37596     -51.92109      -2313.1134     -1938.2268    
    542000   281.62251      1371.9086     -2361.162      -1997.855     
    542500   295.18423     -452.5551      -2324.9237     -1943.9706    
    543000   283.70771      1763.7743     -2280.0115     -1915.2901    
    543500   331.70922      767.85049     -2303.9924     -1875.8937    
    544000   299.83898      1047.6653     -2296.4476     -1909.3508    
    544500   290.27424      685.28144     -2312.8971     -1937.1667    
    545000   303.26104      194.47934     -2297.921      -1906.3502    
    545500   312.8661       1562.7158     -2292.3507     -1888.9166    
    546000   302.18625     -897.08194     -2316.8486     -1926.299     
    546500   294.49299      356.04841     -2311.3707     -1931.3211    
    547000   311.85352      290.46671     -2280.7015     -1877.4885    
    547500   311.60077      898.36373     -2329.9497     -1926.8237    
    548000   296.69948     -688.23543     -2320.4406     -1937.4001    
    548500   313.62454      1613.9223     -2283.2888     -1878.3604    
    549000   301.78872      1597.2857     -2299.2202     -1910.1369    
    549500   295.34013      846.00659     -2324.5328     -1944.0534    
    550000   301.66448      2506.7652     -2307.9515     -1919.3154    
    550500   305.33451      790.60179     -2258.5294     -1866.4843    
    551000   308.01894      1196.9943     -2281.1163     -1883.3162    
    551500   277.12621      1705.1664     -2288.1536     -1929.1393    
    552000   294.29599      1006.5693     -2318.1131     -1937.9344    
    552500   304.31318     -264.65808     -2274.4692     -1883.3387    
    553000   294.91741      693.07564     -2295.8532     -1916.4151    
    553500   302.65671      1907.0691     -2310.0332     -1918.471     
    554000   297.27989      1154.0904     -2336.5011     -1952.7761    
    554500   299.03368     -36.464408     -2366.3312     -1978.9979    
    555000   297.87508     -742.44003     -2316.3594     -1931.9271    
    555500   295.12101      2235.7058     -2282.5747     -1902.5832    
    556000   290.09371      966.29499     -2316.9119     -1943.7575    
    556500   287.0305      -125.57537     -2321.9299     -1951.1818    
    557000   310.17038      2170.1321     -2324.1447     -1922.8968    
    557500   316.98901      985.20956     -2334.7069     -1926.2124    
    558000   279.8947       32.784736     -2343.173      -1981.3928    
    558500   281.25118     -501.78239     -2310.7329     -1946.6612    
    559000   333.87857      343.17978     -2349.3008     -1916.9857    
    559500   299.0344       885.9979      -2347.8978     -1961.4685    
    560000   295.26751      343.62195     -2333.2392     -1950.7062    
    560500   329.48479      908.41815     -2361.3347     -1935.5869    
    561000   285.68905      289.85532     -2303.6207     -1934.655     
    561500   310.3512       1002.4467     -2301.6734     -1899.8357    
    562000   297.0108       970.36081     -2312.9856     -1928.2532    
    562500   293.07602     -128.44034     -2337.4009     -1958.5082    
    563000   280.56885      1762.7562     -2266.4478     -1905.0222    
    563500   288.91103      1493.1797     -2283.2823     -1910.9125    
    564000   295.15811      619.01894     -2326.8971     -1946.7875    
    564500   285.40126     -562.47677     -2339.3015     -1971.2381    
    565000   292.32084      1549.7707     -2297.3065     -1920.48      
    565500   307.06059      241.68453     -2300.3517     -1905.3076    
    566000   283.90886      2079.8738     -2326.971      -1960.9238    
    566500   285.89257      1350.9536     -2307.3518     -1937.2158    
    567000   297.32657      1338.7458     -2299.4577     -1914.5446    
    567500   291.56718      912.30243     -2327.6906     -1951.6572    
    568000   301.80329      667.89517     -2318.0378     -1927.7724    
    568500   310.18082     -271.33848     -2303.3344     -1901.8299    
    569000   304.42585      204.35492     -2341.9055     -1949.1669    
    569500   305.80633      1777.932      -2319.1792     -1924.8808    
    570000   299.07923      350.35068     -2294.517      -1908.5628    
    570500   310.5644       579.37139     -2344.7965     -1942.6823    
    571000   274.61145     -302.48548     -2353.2361     -1998.5295    
    571500   281.33103      199.56163     -2312.1019     -1949.44      
    572000   311.76648      189.40213     -2324.2693     -1921.2245    
    572500   315.64734     -165.94838     -2313.8132     -1907.0753    
    573000   281.76833      1638.2245     -2316.3326     -1953.8352    
    573500   313.23298      2976.1596     -2314.464      -1911.69      
    574000   302.30387      2214.6794     -2295.2521     -1906.6472    
    574500   297.44643      398.40994     -2321.9554     -1939.3154    
    575000   305.0496       1629.9975     -2342.2053     -1948.834     
    575500   302.23539      1989.8474     -2315.1834     -1926.8893    
    576000   312.73214      903.60975     -2291.3084     -1890.8698    
    576500   281.43802      1488.3545     -2310.4057     -1948.4241    
    577000   301.49842      57.570172     -2312.6938     -1926.5485    
    577500   303.40166      2727.8284     -2281.4642     -1891.194     
    578000   299.24913      1656.8481     -2300.3509     -1916.178     
    578500   295.21073      350.15994     -2311.6384     -1932.0642    
    579000   315.33445      2423.9047     -2358.0924     -1952.3013    
    579500   302.85845      1731.4223     -2310.105      -1920.8955    
    580000   320.27263     -277.67531     -2287.5781     -1876.2553    
    580500   288.30838      432.04261     -2289.0807     -1920.4246    
    581000   304.04585      1306.1725     -2322.0743     -1932.04      
    581500   339.48965      520.84235     -2315.4935     -1878.7917    
    582000   305.37876      3552.701      -2297.6938     -1904.9911    
    582500   293.03054     -48.119377     -2316.4531     -1939.9111    
    583000   291.9739      -248.31213     -2340.6877     -1965.4832    
    583500   284.75734     -477.22908     -2317.272      -1951.4293    
    584000   303.48096      446.79058     -2309.661      -1919.9251    
    584500   307.80815      2704.2341     -2297.0452     -1901.9453    
    585000   317.48102     -1314.6127     -2316.4779     -1908.207     
    585500   302.68942      2135.978      -2333.7472     -1943.9128    
    586000   284.41225      1919.3087     -2286.3818     -1920.4192    
    586500   324.7731       2164.8242     -2279.3882     -1861.5923    
    587000   314.97062      2829.8343     -2308.1811     -1902.7031    
    587500   290.57472      344.73142     -2311.0241     -1937.4835    
    588000   295.08472      2794.836      -2361.9099     -1981.3519    
    588500   289.37607      1167.1968     -2357.6431     -1983.1037    
    589000   294.10199      1244.1031     -2318.6762     -1939.4205    
    589500   309.75669      1349.2733     -2308.6906     -1908.6626    
    590000   300.4779      -190.09169     -2353.029      -1966.6725    
    590500   285.79766      2275.993      -2303.8165     -1934.7888    
    591000   310.33784      1890.6347     -2316.0127     -1915.8613    
    591500   313.91205      868.70878     -2325.5269     -1921.9108    
    592000   293.03019      1711.4198     -2309.0992     -1932.1521    
    592500   312.66804      3002.0996     -2321.6318     -1919.3641    
    593000   313.71741      2355.8311     -2282.5456     -1879.1566    
    593500   286.69744      678.47188     -2284.6046     -1915.885     
    594000   298.77766      499.18849     -2329.2786     -1944.06      
    594500   299.59633      2411.0121     -2322.2533     -1938.2832    
    595000   307.76224      1181.582      -2287.1467     -1891.2719    
    595500   305.17445      569.85782     -2318.0862     -1926.1316    
    596000   312.05033      366.46734     -2340.9661     -1939.0903    
    596500   310.86329      503.37245     -2305.115      -1904.4997    
    597000   300.23217      561.29058     -2316.1476     -1930.8423    
    597500   292.5658       2378.5549     -2324.078      -1946.9869    
    598000   316.66184      852.16675     -2301.2544     -1894.3392    
    598500   294.95886      265.85342     -2308.2077     -1928.4652    
    599000   286.68845      1096.9049     -2288.8726     -1920.2958    
    599500   313.7426       970.14642     -2260.3464     -1855.2518    
    600000   302.89402      2288.641      -2282.9775     -1891.9273    
    600500   302.80013      1036.8028     -2325.8683     -1935.229     
    601000   285.98493      314.35116     -2319.0575     -1949.4124    
    601500   306.05903      958.99543     -2340.3444     -1946.8837    
    602000   300.29185      2344.5279     -2294.2035     -1909.5432    
    602500   326.87813      2778.6941     -2286.2132     -1864.2909    
    603000   314.62359      1848.9456     -2316.588      -1912.3318    
    603500   282.06151      193.78286     -2308.7783     -1944.9289    
    604000   303.58953     -491.06516     -2299.1553     -1908.4394    
    604500   305.65841      739.33126     -2293.2432     -1900.5856    
    605000   306.80217      1100.604      -2328.3734     -1932.7091    
    605500   297.57488      727.71818     -2386.1125     -2003.5033    
    606000   298.00336      1584.2079     -2350.2499     -1966.91      
    606500   320.59059      1568.5287     -2351.479      -1939.127     
    607000   283.91827      916.40593     -2317.6529     -1952.3258    
    607500   313.87599      2088.5962     -2303.3168     -1899.4616    
    608000   295.95927      1213.349      -2318.6288     -1936.5871    
    608500   299.52262      1319.2001     -2346.0139     -1960.9952    
    609000   285.43467      683.92114     -2336.5004     -1969.5291    
    609500   298.41663      1095.2019     -2299.6947     -1916.6472    
    610000   297.9881       144.87628     -2312.7499     -1929.501     
    610500   294.78412      1894.0392     -2342.6184     -1962.3052    
    611000   300.14047      1149.1825     -2286.7147     -1900.9001    
    611500   297.47692      1176.343      -2304.0995     -1920.6949    
    612000   281.26842      1616.5245     -2341.6951     -1979.8303    
    612500   291.15713     -495.10945     -2327.5198     -1952.5103    
    613000   290.24831     -51.473207     -2298.4769     -1924.3782    
    613500   314.84011      2058.2943     -2287.16       -1880.9941    
    614000   315.6888       2251.9599     -2312.3835     -1905.4959    
    614500   290.83226      1349.4805     -2311.6898     -1936.2129    
    615000   294.4172       952.23082     -2339.995      -1959.795     
    615500   304.99031      1250.6495     -2289.982      -1896.5773    
    616000   329.30492      455.114       -2331.2617     -1904.9701    
    616500   283.36211      1686.3092     -2312.7211     -1947.018     
    617000   308.3323       2918.269      -2310.5874     -1911.7267    
    617500   300.82763      647.88097     -2308.0628     -1919.6738    
    618000   312.64508      233.74866     -2362.5392     -1959.0209    
    618500   327.33235      1617.9996     -2316.2834     -1894.0188    
    619000   303.82627      497.29825     -2313.166      -1922.5856    
    619500   285.41497     -703.09572     -2318.1273     -1950.1658    
    620000   291.3099       1291.4909     -2290.7055     -1915.5419    
    620500   296.64548      1623.3716     -2304.231      -1923.7014    
    621000   287.94873     -414.80091     -2297.161      -1924.4845    
    621500   307.03994      49.779856     -2282.5937     -1885.194     
    622000   276.77348      1362.8751     -2291.4218     -1933.0603    
    622500   294.6072       1068.1077     -2304.2776     -1924.4766    
    623000   294.2307       1896.19       -2261.4393     -1881.4526    
    623500   313.09366      884.3891      -2302.2806     -1897.0154    
    624000   303.6237       424.84702     -2331.7078     -1939.1154    
    624500   316.70657      184.22635     -2368.6842     -1960.2372    
    625000   307.70097      1047.5697     -2299.7781     -1902.5908    
    625500   296.58616      2351.1465     -2304.9165     -1921.2568    
    626000   290.40995      1971.5836     -2325.4803     -1951.5628    
    626500   307.18191      1055.7445     -2285.3961     -1889.1706    
    627000   309.10315      1590.2432     -2325.2562     -1926.5657    
    627500   288.36749      247.13646     -2342.4793     -1968.9655    
    628000   287.40374      686.36004     -2365.5643     -1993.5169    
    628500   285.54937     -1222.2443     -2308.0565     -1939.1454    
    629000   308.26337      1370.1452     -2319.7161     -1921.4325    
    629500   304.61245      467.76454     -2336.6239     -1944.1822    
    630000   297.75893      1644.1166     -2292.3935     -1908.8465    
    630500   293.71966      829.92274     -2300.5166     -1921.4647    
    631000   291.4548       877.85666     -2349.1209     -1974.7626    
    631500   302.84472     -975.67326     -2318.0219     -1925.732     
    632000   307.08419      967.59778     -2309.0155     -1912.6303    
    632500   283.03232      57.616482     -2334.8322     -1969.3257    
    633000   296.97226     -583.40496     -2321.2518     -1938.6908    
    633500   299.506       -138.67365     -2300.7575     -1913.2765    
    634000   314.36462      1929.183      -2329.6847     -1924.3467    
    634500   306.74049      1398.3649     -2328.7457     -1931.8831    
    635000   286.15531      835.10033     -2295.7817     -1925.7761    
    635500   300.42954      1889.7445     -2293.4387     -1905.8498    
    636000   291.91548      1416.8471     -2327.3751     -1952.4602    
    636500   308.32965      566.08325     -2348.7979     -1951.1236    
    637000   307.36763      1042.534      -2298.3758     -1903.4661    
    637500   312.40699      373.1817      -2311.5679     -1910.3384    
    638000   277.31312      234.13422     -2323.271      -1965.184     
    638500   317.40115      3317.5295     -2326.8348     -1916.01      
    639000   291.39852      203.3025      -2311.0841     -1935.0175    
    639500   305.53272      51.045805     -2299.9477     -1905.9361    
    640000   318.98065     -53.752319     -2296.8424     -1885.1061    
    640500   298.92998      430.50147     -2309.6121     -1924.4062    
    641000   288.08885      645.37508     -2309.3498     -1938.7796    
    641500   283.96791     -190.93681     -2312.4277     -1946.0489    
    642000   326.32163      601.83284     -2314.7567     -1893.5104    
    642500   306.95613      230.2738      -2310.0236     -1914.352     
    643000   299.29659      2087.5543     -2335.9009     -1949.5987    
    643500   314.22035      1677.0785     -2316.9747     -1910.8562    
    644000   304.47978      1631.0211     -2308.3514     -1915.807     
    644500   298.27532     -20.920193     -2311.3227     -1926.7523    
    645000   286.30086      310.44212     -2356.7932     -1986.3559    
    645500   294.38938      480.43438     -2320.3899     -1939.7987    
    646000   316.11424      1402.126      -2333.5705     -1924.5745    
    646500   294.31325      1678.0093     -2280.6829     -1901.0582    
    647000   296.98177      973.0944      -2292.0294     -1908.0476    
    647500   286.37053      480.09736     -2317.0482     -1947.8223    
    648000   285.06369      254.37408     -2283.675      -1914.5894    
    648500   304.8986       677.35477     -2257.5596     -1862.7749    
    649000   298.6989       131.38109     -2295.9568     -1911.647     
    649500   299.69228     -965.37904     -2324.2352     -1938.5081    
    650000   311.77149      1555.1588     -2290.244      -1887.6396    
    650500   301.91317      955.42497     -2307.7503     -1917.1174    
    651000   296.95832      2080.8268     -2321.6735     -1938.2554    
    651500   302.40975      1677.8423     -2308.7879     -1918.7989    
    652000   333.39087      1277.0804     -2317.1633     -1887.2492    
    652500   302.45191      815.95146     -2331.421      -1941.6356    
    653000   300.90331      578.2217      -2325.5241     -1937.1851    
    653500   315.85822      751.80221     -2293.8732     -1886.3672    
    654000   299.42287      730.23885     -2313.7278     -1926.8976    
    654500   283.82579      13.691561     -2305.0785     -1937.3045    
    655000   275.38407      437.29151     -2269.5852     -1915.6767    
    655500   308.43392      1459.5435     -2263.6705     -1867.4226    
    656000   303.73733      900.25367     -2308.2622     -1916.5158    
    656500   282.92126      1228.0858     -2294.3692     -1928.9971    
    657000   311.71766      2707.5588     -2282.5049     -1880.1129    
    657500   294.46016      449.87467     -2286.8392     -1907.1165    
    658000   295.74922      2067.3385     -2286.8268     -1906.8555    
    658500   301.80047      1108.4648     -2293.4569     -1904.5782    
    659000   305.11068      111.25741     -2322.4923     -1927.5131    
    659500   287.76467      1486.89       -2344.3315     -1972.7205    
    660000   290.35229      357.61744     -2316.3235     -1940.2451    
    660500   315.14168      1262.553      -2331.2807     -1924.8653    
    661000   295.94159      832.52858     -2329.4967     -1947.4362    
    661500   289.04857     -293.04849     -2344.9698     -1971.5546    
    662000   315.23416      1109.0463     -2324.4667     -1917.0813    
    662500   304.60687      1601.8833     -2337.0716     -1943.6011    
    663000   281.34809      462.85132     -2322.0591     -1958.9221    
    663500   303.80158      1757.1405     -2293.7365     -1901.4948    
    664000   287.50197      801.35041     -2312.8479     -1942.3974    
    664500   299.77426      473.70899     -2315.3049     -1927.0617    
    665000   305.46671      2396.7167     -2293.3574     -1897.8234    
    665500   280.40549      1222.7952     -2297.9096     -1936.0311    
    666000   297.49303      977.32319     -2272.9968     -1888.7856    
    666500   299.33754      2255.3579     -2305.5751     -1919.1455    
    667000   290.58842      1548.4521     -2306.1801     -1931.3097    
    667500   302.13846      1063.3499     -2316.8093     -1927.112     
    668000   296.38139      475.99268     -2348.6334     -1966.2316    
    668500   275.43055      2467.5866     -2318.2327     -1961.6064    
    669000   285.61263      1151.0653     -2285.5338     -1916.8399    
    669500   308.92883      416.76053     -2310.081      -1908.4277    
    670000   294.87365      987.79975     -2334.8518     -1955.6738    
    670500   314.77835      679.7261      -2308.2023     -1901.9278    
    671000   305.01997      948.73025     -2297.0775     -1903.9444    
    671500   301.87151      1218.1828     -2324.641      -1934.5191    
    672000   316.30359      1706.2541     -2352.1498     -1944.0899    
    672500   294.77551      1362.8037     -2333.0686     -1952.2341    
    673000   333.11507      1437.1205     -2326.2934     -1896.2562    
    673500   304.10737      678.11632     -2301.7209     -1908.2399    
    674000   309.30757      1046.2484     -2336.5218     -1937.7087    
    674500   281.40563     -807.53944     -2295.9869     -1931.4051    
    675000   311.73234     -355.14219     -2287.4459     -1883.6846    
    675500   301.89574      809.62262     -2323.3617     -1932.6185    
    676000   290.48779      769.22459     -2317.7153     -1942.3452    
    676500   312.24034      1521.8855     -2306.3324     -1903.3575    
    677000   302.19166     -1058.3068     -2348.371      -1958.2956    
    677500   275.79253      2288.729      -2306.7466     -1951.4797    
    678000   307.9399       318.62138     -2311.3615     -1914.3419    
    678500   300.73923     -697.16752     -2300.5834     -1913.4619    
    679000   319.81667      103.19102     -2313.1588     -1901.921     
    679500   295.1142       804.50949     -2322.7838     -1942.06      
    680000   318.70879      1219.2948     -2305.689      -1895.6297    
    680500   303.94293      1409.1633     -2308.0383     -1916.2298    
    681000   293.86418      1354.0443     -2314.9875     -1935.4943    
    681500   293.84838      297.32434     -2353.6953     -1974.0212    
    682000   287.76179      1068.8389     -2331.5382     -1959.3452    
    682500   319.06483      1335.7854     -2334.5096     -1921.5749    
    683000   290.39166      352.26558     -2308.7832     -1932.8902    
    683500   289.03982     -555.20289     -2322.8782     -1949.505     
    684000   314.96316      1840.4174     -2317.1987     -1910.8048    
    684500   303.16498      1456.3379     -2312.1373     -1921.0626    
    685000   287.48487      49.096772     -2338.6423     -1968.0306    
    685500   294.18929      1702.9146     -2303.235      -1923.7578    
    686000   297.59636      388.93553     -2289.2685     -1904.7852    
    686500   313.64492      2256.2107     -2309.5554     -1903.4561    
    687000   301.78099     -265.41995     -2328.7729     -1939.2972    
    687500   298.87661      1524.4893     -2289.6593     -1902.563     
    688000   329.53195      1607.251      -2276.085      -1850.2809    
    688500   288.18018      1496.741      -2285.5686     -1913.434     
    689000   303.92046      1296.6959     -2306.0236     -1914.3857    
    689500   317.46575     -210.99411     -2340.2831     -1930.5125    
    690000   288.55939      553.86551     -2334.7575     -1960.9334    
    690500   302.62332      1624.1796     -2309.8713     -1919.125     
    691000   289.50617      615.38041     -2313.9616     -1939.3793    
    691500   289.07381      1434.6566     -2349.578      -1977.0291    
    692000   291.28213      2994.8723     -2302.5009     -1928.487     
    692500   313.44317      63.323699     -2314.4606     -1911.3584    
    693000   280.61194      1285.9878     -2328.394      -1966.2238    
    693500   292.99986      692.41041     -2331.9227     -1953.6438    
    694000   304.23894      196.68493     -2318.4597     -1926.0503    
    694500   306.58903      288.27296     -2318.5084     -1922.7952    
    695000   313.99125      388.72346     -2303.5643     -1898.2072    
    695500   296.90288      784.36133     -2296.5867     -1912.3211    
    696000   294.55037     -102.65541     -2342.8866     -1963.0041    
    696500   308.25907      1684.2442     -2312.8614     -1915.7367    
    697000   304.28115      1409.5324     -2311.528      -1918.964     
    697500   275.10898     -795.37541     -2311.6853     -1957.0799    
    698000   299.92491      391.86966     -2315.7046     -1927.1785    
    698500   300.76014     -761.16524     -2310.631      -1922.6971    
    699000   288.64604      929.80873     -2283.6938     -1910.783     
    699500   310.47609      1462.8686     -2283.0724     -1883.4484    
    700000   294.56085      513.22734     -2318.8745     -1938.381     
    700500   300.38989      1005.7177     -2333.4196     -1945.4138    
    701000   295.91698      1141.252      -2268.0644     -1885.9211    
    701500   302.5217       555.70359     -2317.6225     -1927.9943    
    702000   288.56707     -2.3066302     -2309.9932     -1939.8476    
    702500   321.63681      1213.4186     -2316.272      -1900.8416    
    703000   291.93868      574.83875     -2287.1116     -1909.7967    
    703500   307.72965      343.67802     -2350.1213     -1951.5232    
    704000   299.64458     -49.898248     -2300.7338     -1912.694     
    704500   296.20771      1433.9493     -2281.3494     -1898.7464    
    705000   282.94948     -495.87667     -2318.3297     -1951.6537    
    705500   302.78245      2196.9284     -2314.8492     -1923.9053    
    706000   288.35153      838.60892     -2280.339      -1908.276     
    706500   312.82765      1745.6808     -2317.6398     -1914.0909    
    707000   304.06285     -886.64812     -2322.9782     -1930.4975    
    707500   324.70392      1547.6877     -2298.0314     -1878.0123    
    708000   300.85835      2479.7072     -2309.1903     -1921.3773    
    708500   281.00745      1536.2909     -2298.3536     -1936.8909    
    709000   291.91746     -618.86793     -2319.5167     -1942.4052    
    709500   314.43214      1134.2929     -2295.6755     -1888.4854    
    710000   315.38999     -665.63873     -2324.3059     -1915.8913    
    710500   296.54253      1664.4477     -2335.2617     -1952.1232    
    711000   297.49485     -756.93068     -2309.8188     -1925.9984    
    711500   304.37898      1001.6769     -2287.867      -1895.6041    
    712000   308.55716     -795.44774     -2334.8998     -1936.12      
    712500   298.72116      1406.5743     -2336.28       -1951.1911    
    713000   304.81639      1320.1538     -2295.3336     -1902.5375    
    713500   314.88973      812.90626     -2318.0778     -1911.2241    
    714000   304.5935       1492.3718     -2337.7244     -1944.3077    
    714500   291.33943      1078.7109     -2292.1142     -1915.7697    
    715000   303.30086      388.1199      -2321.7977     -1929.2794    
    715500   296.51632      484.11799     -2341.7534     -1958.9155    
    716000   310.81399      2642.6844     -2311.2028     -1910.5489    
    716500   310.30637      1059.061      -2329.5338     -1929.5312    
    717000   296.42938      1685.4261     -2328.5212     -1946.3556    
    717500   298.69478      424.75469     -2319.7229     -1936.3349    
    718000   331.12885      237.06403     -2303.6103     -1876.9385    
    718500   295.88327      1229.2829     -2313.5462     -1932.3936    
    719000   307.14624     -514.95301     -2350.8391     -1956.1346    
    719500   318.47751     -219.2785      -2322.1715     -1910.8717    
    720000   295.0719       852.40203     -2320.2946     -1941.8104    
    720500   282.32605      311.5648      -2313.0585     -1949.0485    
    721000   297.40226      748.43497     -2308.6272     -1923.3903    
    721500   320.2158       1077.2671     -2277.5453     -1865.9788    
    722000   298.56818      739.14365     -2308.4188     -1922.4466    
    722500   301.86194      628.59208     -2335.8244     -1946.3741    
    723000   301.28468      735.32308     -2318.7857     -1929.7076    
    723500   301.02989      1463.3992     -2287.5679     -1897.5493    
    724000   314.52567      1677.3397     -2333.4339     -1926.1312    
    724500   288.63678      928.43049     -2316.8719     -1942.8374    
    725000   295.16516      1448.9587     -2271.2976     -1890.3025    
    725500   318.41532      983.17496     -2295.5635     -1884.2443    
    726000   306.52488      1294.2622     -2309.7078     -1913.9475    
    726500   299.78733      864.71669     -2316.4825     -1929.5201    
    727000   318.04974      1610.8826     -2315.771      -1903.9448    
    727500   295.86067      971.71723     -2307.945      -1924.9321    
    728000   290.53613      425.3471      -2335.5424     -1960.8761    
    728500   304.09288      1161.7789     -2321.1142     -1928.6684    
    729000   314.32743      1016.105      -2348.7839     -1942.7521    
    729500   281.63266      36.84426      -2344.7292     -1981.296     
    730000   298.27633      1331.6747     -2304.7886     -1918.4151    
    730500   297.8384       1908.1025     -2296.9674     -1911.6383    
    731000   288.53832     -284.87115     -2321.5616     -1948.8318    
    731500   301.26325     -1.3067084     -2301.3291     -1911.0771    
    732000   303.24672      738.28051     -2292.0802     -1902.0864    
    732500   318.11451      304.69078     -2344.2712     -1935.423     
    733000   302.28689      1755.3648     -2313.4987     -1923.7157    
    733500   324.08013      1954.9545     -2290.8944     -1872.9618    
    734000   304.0453      -49.818293     -2321.9598     -1928.1886    
    734500   294.54612      518.39432     -2320.7094     -1940.5068    
    735000   302.21261      1109.1708     -2301.3214     -1911.2195    
    735500   310.54056      671.37449     -2293.4383     -1891.2362    
    736000   290.47785      1044.8467     -2320.3959     -1945.4082    
    736500   319.81218      1399.5218     -2328.7003     -1915.5604    
    737000   323.55796      1827.3262     -2279.0366     -1861.2873    
    737500   312.34345     -299.15129     -2314.9104     -1911.701     
    738000   316.13612      754.18856     -2332.3797     -1923.3137    
    738500   325.00956      2899.0637     -2294.979      -1875.7013    
    739000   289.22898      210.25437     -2267.8821     -1896.0412    
    739500   295.73097      171.31452     -2316.2388     -1934.2129    
    740000   294.1417       379.22282     -2315.7539     -1935.9837    
    740500   296.82722     -529.17268     -2308.4344     -1925.5959    
    741000   304.06435      1192.5647     -2295.4751     -1901.4825    
    741500   309.82777      704.16534     -2347.0009     -1947.3704    
    742000   291.69581      331.13818     -2326.4897     -1949.6537    
    742500   286.29242     -786.12832     -2297.3042     -1926.3867    
    743000   323.406        797.6126      -2316.4132     -1898.6729    
    743500   279.09747      2263.0381     -2257.2456     -1897.0118    
    744000   291.91518      1410.022      -2315.9858     -1937.9589    
    744500   304.74704      1937.7491     -2305.488      -1912.2058    
    745000   307.37982      1607.3928     -2266.9682     -1869.7824    
    745500   297.88514      759.42        -2314.2333     -1929.6268    
    746000   301.77317      584.56577     -2340.4284     -1949.5201    
    746500   321.62083      784.33231     -2338.3174     -1923.3164    
    747000   308.2831       2100.9353     -2294.6141     -1896.7069    
    747500   279.72577      1143.6139     -2321.3142     -1960.0057    
    748000   282.96799      1249.6078     -2285.9404     -1921.0943    
    748500   288.30055      1885.0621     -2292.0485     -1920.4114    
    749000   289.60832     -764.89002     -2349.9935     -1976.4829    
    749500   285.2968       1087.2926     -2309.6277     -1941.8093    
    750000   316.20243      1143.0678     -2303.9828     -1896.4488    
    750500   297.17366      281.9074      -2317.0211     -1932.2953    
    751000   284.75031      1999.0608     -2296.1177     -1928.8794    
    751500   306.03245      1021.0794     -2316.7676     -1921.7202    
    752000   305.97595      577.56014     -2308.4711     -1914.0704    
    752500   323.31251      642.4862      -2301.6957     -1884.4307    
    753000   290.28124      1674.01       -2317.5229     -1942.0723    
    753500   320.02362      1072.2879     -2322.5272     -1909.3246    
    754000   282.89834      1038.0074     -2276.423      -1911.2011    
    754500   294.09821      381.37234     -2336.0145     -1956.5826    
    755000   297.45507      366.5106      -2293.1505     -1908.3365    
    755500   317.02635      1007.1911     -2321.9078     -1912.98      
    756000   296.67678      1486.1763     -2320.6315     -1936.8152    
    756500   300.81585      96.73262      -2316.1596     -1926.9952    
    757000   317.58297      2466.2404     -2285.0999     -1876.745     
    757500   301.57722      2231.697      -2303.6903     -1916.823     
    758000   296.12614      785.26749     -2282.8675     -1899.6809    
    758500   314.26502      2100.134      -2262.147      -1857.342     
    759000   298.54661      1641.6715     -2286.8344     -1901.0585    
    759500   308.41529      1358.0253     -2339.5042     -1940.3297    
    760000   289.0034       215.35683     -2336.3298     -1963.6831    
    760500   318.3277       1426.2618     -2326.2423     -1916.4671    
    761000   306.42929     -66.202538     -2304.8243     -1910.8057    
    761500   277.40889     -141.12192     -2321.2747     -1963.7491    
    762000   312.69033      2428.2581     -2330.7365     -1927.7021    
    762500   306.40088      1127.3265     -2315.0817     -1918.9831    
    763000   310.08632      2906.1427     -2313.1277     -1913.6083    
    763500   286.12444      589.63491     -2341.8303     -1974.0719    
    764000   301.56579      671.75287     -2321.8483     -1935.3048    
    764500   319.46814      1873.058      -2322.8103     -1910.8518    
    765000   304.48145      840.45145     -2308.7034     -1917.2643    
    765500   293.20262      847.4723      -2335.3206     -1958.5562    
    766000   309.47722     -485.4869      -2320.5136     -1922.61      
    766500   299.12265      1205.1748     -2274.297      -1890.6398    
    767000   296.82329      1192.6675     -2300.8724     -1919.1684    
    767500   311.30648      1317.8538     -2322.2458     -1923.0093    
    768000   301.5299       557.78246     -2301.5938     -1913.6985    
    768500   282.31827      910.02122     -2323.1452     -1960.3152    
    769000   297.77197      1487.9818     -2316.1112     -1934.0689    
    769500   306.49162      1647.7767     -2295.65       -1901.3957    
    770000   295.7636       367.24985     -2312.1003     -1930.3951    
    770500   301.76833      115.32803     -2338.0058     -1949.3796    
    771000   292.52595      1789.847      -2290.3637     -1913.7925    
    771500   333.88158      2356.1629     -2327.5655     -1897.8964    
    772000   301.22127      136.79801     -2339.5199     -1951.8312    
    772500   316.0142      -18.64353      -2324.1974     -1916.3505    
    773000   303.35009      2197.7548     -2294.8603     -1902.6576    
    773500   286.64134      1073.9104     -2323.7839     -1954.5351    
    774000   297.00241      1712.204      -2339.5087     -1956.5878    
    774500   309.81381      1091.977      -2325.7274     -1925.7795    
    775000   314.05185      165.99578     -2310.9435     -1906.2924    
    775500   323.15881      1863.8386     -2285.0088     -1867.8612    
    776000   287.94968      1625.643      -2290.1799     -1918.6397    
    776500   295.82786      2169.0257     -2308.4391     -1926.5334    
    777000   317.8775       788.04641     -2293.3041     -1883.4196    
    777500   316.0821       3742.444      -2336.2921     -1928.477     
    778000   289.6947       669.42645     -2308.284      -1934.2469    
    778500   310.31411      1351.7764     -2273.9321     -1874.9965    
    779000   311.50771      682.51266     -2282.5549     -1880.624     
    779500   303.05663      1340.0167     -2323.342      -1930.826     
    780000   293.37417      1462.6889     -2322.1662     -1943.3956    
    780500   272.99561      1146.4108     -2331.6808     -1979.39      
    781000   280.23055      1786.3718     -2291.6693     -1930.5808    
    781500   313.13356      2080.2585     -2325.0103     -1921.5809    
    782000   278.29796     -45.575968     -2316.2734     -1956.8097    
    782500   300.09426      1188.2613     -2325.3639     -1937.9461    
    783000   296.92223      660.34441     -2295.3895     -1911.7223    
    783500   273.43714      724.77759     -2297.2538     -1944.3187    
    784000   281.5789       1176.463      -2329.3472     -1966.9924    
    784500   314.28184      1449.095      -2337.0625     -1933.4972    
    785000   312.85429      1227.9127     -2329.6426     -1926.1484    
    785500   297.77298      1781.762      -2320.9792     -1937.9742    
    786000   274.57759      1327.8907     -2315.8052     -1961.7906    
    786500   319.83003      169.00046     -2317.9373     -1905.3958    
    787000   296.51433      1003.1745     -2305.6298     -1923.178     
    787500   287.24806      1304.1265     -2322.9504     -1950.9326    
    788000   316.93682      180.11698     -2319.8545     -1910.5554    
    788500   301.18295      1023.5948     -2298.6139     -1910.1514    
    789000   291.03199      812.81752     -2332.156      -1955.2071    
    789500   301.12358      494.4885      -2301.5844     -1911.5348    
    790000   291.56109      1072.139      -2312.289      -1934.561     
    790500   289.36402      277.08621     -2332.0502     -1958.8905    
    791000   311.95742      1297.1923     -2306.859      -1904.4148    
    791500   291.80189     -93.589184     -2294.8825     -1918.6653    
    792000   293.51121     -137.63503     -2346.5257     -1967.9973    
    792500   294.74993     -1827.6203     -2318.7444     -1939.1057    
    793000   309.03186      111.03595     -2321.7355     -1925.0791    
    793500   281.88874     -249.82786     -2304.7678     -1941.6648    
    794000   308.49534      539.25114     -2316.8514     -1918.7423    
    794500   305.18305      1339.5306     -2278.8049     -1885.7258    
    795000   297.42948      538.88541     -2324.753      -1940.0766    
    795500   292.38217      3053.3217     -2313.7583     -1935.4167    
    796000   296.56225      759.03845     -2289.3253     -1907.2321    
    796500   311.78308      1664.5359     -2282.9918     -1879.612     
    797000   299.0298       830.75912     -2318.2341     -1933.4503    
    797500   287.4649       1372.7162     -2320.1865     -1949.6908    
    798000   305.10435      2032.2101     -2323.2472     -1928.783     
    798500   329.33055      958.14415     -2338.9278     -1914.6363    
    799000   288.64603      1057.795      -2330.5076     -1959.3978    
    799500   303.42999      1478.3961     -2323.6044     -1932.363     
    800000   308.2728       2260.5592     -2315.7804     -1919.1275    
    800500   285.00344      211.07064     -2313.3863     -1948.6018    
    801000   290.4201      -148.27728     -2340.7369     -1966.8688    
    801500   317.2997       1358.13       -2320.4082     -1912.7195    
    802000   302.37595      1430.0461     -2325.4923     -1936.9705    
    802500   277.64702      356.57881     -2313.9598     -1957.256     
    803000   298.67556      1179.513      -2288.4167     -1903.5975    
    803500   292.97054      2463.9973     -2302.4605     -1925.9495    
    804000   271.94423      1620.7175     -2308.9409     -1959.1203    
    804500   298.6786       1199.1076     -2309.0289     -1924.9491    
    805000   297.88846      107.31704     -2300.2961     -1917.3987    
    805500   290.75887      2252.5683     -2312.1577     -1938.7269    
    806000   300.56018      813.37219     -2326.3899     -1940.535     
    806500   322.54564      762.07543     -2333.91       -1917.5238    
    807000   302.08031      1069.8988     -2322.9327     -1934.2717    
    807500   297.0692       908.4691      -2294.6849     -1913.3665    
    808000   314.40698      2162.0268     -2271.1299     -1867.9427    
    808500   309.83768      141.78076     -2316.0114     -1916.055     
    809000   288.9525       1003.9102     -2327.7922     -1955.2339    
    809500   298.98425      940.02324     -2290.0373     -1905.7574    
    810000   303.84944     -70.717784     -2302.8493     -1910.5175    
    810500   282.28325      964.99062     -2325.4693     -1962.9604    
    811000   307.46392      1396.8484     -2338.3508     -1943.0384    
    811500   305.48396      1592.6115     -2290.6459     -1896.1957    
    812000   298.99848      1918.0085     -2337.6583     -1953.1939    
    812500   277.65841      983.0422      -2311.1971     -1955.6504    
    813000   305.22554      1347.6403     -2298.2276     -1904.7103    
    813500   300.80965      1.3215391     -2327.8988     -1941.2336    
    814000   297.03654      119.87371     -2277.0211     -1895.7406    
    814500   300.523       -503.23347     -2280.1911     -1892.3164    
    815000   299.2604      -457.71188     -2321.0956     -1936.2543    
    815500   292.05422      344.7546      -2336.0312     -1960.4633    
    816000   288.42264      1166.1834     -2355.082      -1984.4741    
    816500   306.56399      1625.5984     -2318.7595     -1924.5735    
    817000   300.36398      934.82511     -2298.9312     -1912.9927    
    817500   303.95607      1003.3783     -2287.1274     -1896.1521    
    818000   294.97504      379.98738     -2325.9873     -1946.8877    
    818500   294.79446      1454.9353     -2307.438      -1928.5234    
    819000   309.9859       972.5694      -2293.526      -1895.5937    
    819500   311.58854      895.04896     -2324.2289     -1923.6178    
    820000   285.29943      1472.0278     -2304.1133     -1936.1529    
    820500   312.47953      1186.6853     -2321.9053     -1919.3265    
    821000   318.64787      1381.9428     -2297.3189     -1886.8815    
    821500   302.96864      1099.3692     -2318.9442     -1927.2544    
    822000   295.73991      429.79649     -2328.6997     -1946.8032    
    822500   313.65497      601.55744     -2297.4349     -1894.3749    
    823000   312.2223       139.17153     -2305.3016     -1902.5726    
    823500   285.95799      2037.9191     -2310.7396     -1941.0645    
    824000   320.60274      51.248475     -2338.7987     -1924.2082    
    824500   315.81074      1621.3157     -2310.4746     -1904.3552    
    825000   286.39846      1857.9991     -2310.1224     -1939.7253    
    825500   295.16272      2139.0485     -2318.3039     -1937.251     
    826000   324.12092      1156.4573     -2319.8336     -1902.1904    
    826500   311.08144      205.93271     -2333.0419     -1931.2424    
    827000   290.90609      72.583968     -2318.4959     -1942.7021    
    827500   309.78734      1034.2013     -2309.6267     -1908.4183    
    828000   313.53855     -1125.2769     -2323.6245     -1919.1193    
    828500   303.06052      1744.1336     -2366.709      -1976.297     
    829000   298.98704     -295.5371      -2339.2511     -1955.4199    
    829500   310.92409      743.12658     -2333.9704     -1932.3733    
    830000   303.46385      1592.4787     -2318.7257     -1926.3651    
    830500   314.55451      3494.1148     -2303.32       -1897.2911    
    831000   288.28628      477.29517     -2314.5871     -1942.9639    
    831500   289.90663      1677.5587     -2319.7716     -1946.1819    
    832000   297.74886      1455.0889     -2308.7619     -1925.4842    
    832500   287.85852      210.86871     -2313.8428     -1942.3006    
    833000   256.54005     -632.15977     -2327.5207     -1996.6458    
    833500   304.48692      2820.1252     -2329.716      -1935.647     
    834000   304.33915      1117.012      -2316.0113     -1922.2089    
    834500   317.8271       840.8767      -2319.8168     -1910.4952    
    835000   284.20166     -56.248869     -2327.218      -1960.1756    
    835500   311.60028      564.55613     -2329.1378     -1928.3449    
    836000   295.45853      1296.449      -2306.0058     -1925.9581    
    836500   283.24615      1378.6838     -2303.731      -1939.4774    
    837000   288.64008      1746.3105     -2277.8375     -1905.4755    
    837500   321.32254      2385.8452     -2297.7681     -1883.3676    
    838000   288.70344      1586.2815     -2311.0869     -1940.1654    
    838500   303.33477      168.58361     -2360.1036     -1968.9205    
    839000   295.24807     -526.43219     -2345.7262     -1965.9659    
    839500   303.08159     -160.26243     -2304.6061     -1914.0404    
    840000   310.36873     -380.50338     -2344.7453     -1945.1337    
    840500   288.66373      1874.275      -2318.3131     -1948.8243    
    841000   298.80942     -135.7146      -2291.5685     -1905.6861    
    841500   293.86561      2880.0918     -2319.3045     -1942.0328    
    842000   288.32137      1096.4524     -2334.4979     -1962.8817    
    842500   308.12297      2023.0007     -2304.9441     -1907.8106    
    843000   288.88253     -7.3881459     -2316.8762     -1946.4778    
    843500   295.89051      555.96541     -2293.5058     -1912.898     
    844000   318.04642      1936.3155     -2300.7513     -1891.9316    
    844500   300.45485     -354.74084     -2323.9702     -1938.4466    
    845000   287.41866      1334.9434     -2306.0537     -1936.0907    
    845500   300.87967      684.36299     -2330.3569     -1942.7551    
    846000   317.49553     -419.73091     -2340.474      -1932.2998    
    846500   311.45513      2984.6844     -2350.8261     -1949.9592    
    847000   289.28645     -965.144       -2346.3977     -1974.2397    
    847500   308.95946      666.17056     -2304.4788     -1906.8765    
    848000   309.66617      500.74293     -2302.1272     -1903.5923    
    848500   287.10005     -243.93054     -2331.7799     -1961.5957    
    849000   287.08985      1008.8949     -2309.3555     -1940.0122    
    849500   314.54299      1391.5145     -2316.6142     -1912.0576    
    850000   278.81393      1720.8643     -2300.9944     -1940.7775    
    850500   278.30686      1117.8101     -2350.0196     -1991.9978    
    851000   298.81356      485.81633     -2335.611      -1950.9516    
    851500   295.99582     -51.304512     -2296.789      -1915.9491    
    852000   291.25854      982.3951      -2286.9945     -1912.315     
    852500   292.40333      685.21713     -2331.765      -1954.1676    
    853000   315.00752      2141.2047     -2300.983      -1894.7128    
    853500   310.54535      2809.9653     -2316.754      -1916.2085    
    854000   277.42668      727.44127     -2325.626      -1968.7797    
    854500   304.92656      2034.7565     -2340.7        -1947.5447    
    855000   297.14898      1001.3458     -2299.8291     -1916.5241    
    855500   302.65713      832.18726     -2292.8459     -1901.8963    
    856000   291.63879      1275.5168     -2318.7604     -1941.3516    
    856500   273.83345      1376.0977     -2315.4975     -1960.9568    
    857000   313.73414      1973.4834     -2313.6305     -1907.2335    
    857500   302.46464      1637.4422     -2345.3662     -1953.6518    
    858000   304.9743       1825.7028     -2322.5141     -1929.5775    
    858500   305.69793      1509.1207     -2294.179      -1901.413     
    859000   309.5181      -65.208261     -2341.295      -1940.4354    
    859500   296.53785      1466.7042     -2281          -1897.0912    
    860000   315.40186      937.60241     -2304.5893     -1896.8221    
    860500   321.01638      980.62562     -2345.3996     -1931.7788    
    861000   284.27898      1250.7868     -2299.5653     -1933.1811    
    861500   330.39441      787.68025     -2304.7574     -1877.7641    
    862000   300.59399      1787.8422     -2314.6912     -1927.1621    
    862500   295.73592      1346.5683     -2326.427      -1944.5444    
    863000   299.64457      1622.6709     -2296.524      -1910.4718    
    863500   301.37204      1454.9779     -2289.3927     -1900.9805    
    864000   285.30175      948.68325     -2320.7734     -1954.6505    
    864500   299.00948      1575.705      -2306.5271     -1921.1585    
    865000   306.91288      1062.3961     -2316.292      -1920.5899    
    865500   296.37621      968.27162     -2316.7179     -1936.0966    
    866000   295.68974      1312.5926     -2329.9636     -1951.5619    
    866500   310.30822      1719.8827     -2328.1625     -1929.0312    
    867000   315.67982      881.39377     -2312.7913     -1905.4884    
    867500   306.25684      1318.3383     -2274.59       -1878.6007    
    868000   319.5163      -1107.6256     -2355.0894     -1943.3044    
    868500   299.12723      1214.1774     -2305.0528     -1919.2388    
    869000   308.21856      1162.8468     -2305.9272     -1907.7851    
    869500   294.93444      1493.7306     -2311.2521     -1930.6572    
    870000   291.45683      1917.2634     -2302.7704     -1926.4339    
    870500   298.11549      2205.4762     -2295.9609     -1910.0065    
    871000   293.42437      1302.8785     -2305.5304     -1926.8165    
    871500   270.00075      1782.7429     -2306.5336     -1958.184     
    872000   303.61215      918.57598     -2331.9037     -1940.0978    
    872500   308.97234     -437.35454     -2302.2898     -1903.8035    
    873000   297.10021      1698.1208     -2334.5213     -1950.9474    
    873500   299.32654      400.6672      -2323.4558     -1935.8587    
    874000   303.69683     -399.20303     -2299.7518     -1907.9848    
    874500   295.41532      412.61924     -2336.1237     -1956.0017    
    875000   299.29768      950.92886     -2329.7175     -1943.2916    
    875500   290.37254      460.16343     -2282.9237     -1907.5666    
    876000   291.85106      994.90899     -2312.6728     -1936.7233    
    876500   280.73892      86.582272     -2321.7176     -1958.4711    
    877000   329.00676      579.96687     -2340.7842     -1916.8104    
    877500   299.53608      51.485155     -2296.8755     -1910.1141    
    878000   318.32433      404.24581     -2288.9046     -1878.246     
    878500   312.02964      1074.498      -2340.2591     -1937.3397    
    879000   301.02308      1843.464      -2328.7526     -1940.1766    
    879500   316.76277     -720.25861     -2301.3047     -1891.4463    
    880000   298.51336     -318.12377     -2324.6953     -1940.6859    
    880500   299.00544      547.4431      -2344.3961     -1959.1345    
    881000   312.35135      1700.1513     -2304.7784     -1904.3327    
    881500   293.57338      1629.1359     -2290.2826     -1911.7994    
    882000   303.29958      302.43573     -2358.4636     -1968.0854    
    882500   288.59321      1601.7027     -2327.6678     -1956.8621    
    883000   287.83367      1274.4205     -2301.6064     -1931.7156    
    883500   321.77748      755.90762     -2298.0723     -1884.5984    
    884000   305.16735      1516.5686     -2296.9243     -1904.3711    
    884500   302.88494      653.53313     -2313.0616     -1922.0652    
    885000   307.00192      2638.4893     -2307.9848     -1912.842     
    885500   295.07795      719.94683     -2313.4427     -1933.8648    
    886000   295.75849     -454.45815     -2323.7395     -1941.0457    
    886500   322.44186      2513.9227     -2313.2955     -1897.7891    
    887000   299.65888      1423.3516     -2341.8644     -1954.0893    
    887500   283.44133     -827.12516     -2304.9122     -1940.2372    
    888000   293.0027       814.82794     -2302.414      -1925.9266    
    888500   282.85607     -400.82325     -2347.0199     -1982.5354    
    889000   280.3893       591.44286     -2315.3334     -1954.9546    
    889500   300.37254      113.59681     -2310.205      -1924.4641    
    890000   319.79724      1703.0281     -2319.2467     -1905.5939    
    890500   275.48607      1448.4203     -2299.4898     -1944.7205    
    891000   317.02251      862.2857      -2325.4906     -1915.1984    
    891500   298.21813      2378.9054     -2285.8557     -1899.8791    
    892000   284.5869       219.94993     -2309.1505     -1942.2425    
    892500   315.40742      647.54636     -2335.1981     -1928.6195    
    893000   288.96433      672.50098     -2309.4724     -1935.4666    
    893500   287.01724      476.22017     -2343.5617     -1974.793     
    894000   301.49941      1273.069      -2329.0677     -1940.2448    
    894500   306.45087      426.64307     -2314.8245     -1919.6531    
    895000   303.7316       2150.2598     -2257.3905     -1864.2978    
    895500   298.50087      716.79795     -2276.7057     -1892.0475    
    896000   311.14606      2762.3123     -2329.1756     -1927.7334    
    896500   324.97035     -440.14711     -2344.7334     -1925.6355    
    897000   273.68952     -198.24287     -2337.2334     -1984.7175    
    897500   302.20809     -190.19706     -2334.8877     -1943.9568    
    898000   296.6869       914.25652     -2293.8925     -1912.8784    
    898500   278.02291     -218.29828     -2303.3367     -1946.1534    
    899000   291.27767      2292.9753     -2338.8599     -1963.7802    
    899500   307.96779      646.28095     -2319.0866     -1920.7758    
    900000   292.72601      2096.5068     -2301.5018     -1924.4875    
    900500   291.85087      842.08504     -2323.2476     -1946.2918    
    901000   283.96767      710.07462     -2335.4267     -1968.5213    
    901500   297.55459      533.09561     -2306.8403     -1923.0076    
    902000   298.73707      1018.3364     -2324.0277     -1938.8114    
    902500   292.31418      1020.818      -2335.2125     -1957.6903    
    903000   300.96552      231.49295     -2295.9396     -1906.6249    
    903500   311.395        1255.5541     -2321.1571     -1919.6332    
    904000   293.05141      1301.124      -2337.4433     -1959.979     
    904500   297.30393      950.87711     -2308.9889     -1925.4545    
    905000   300.52112     -128.84243     -2306.8473     -1919.3424    
    905500   296.76559      1245.5447     -2320.2583     -1936.6173    
    906000   291.18252      895.58317     -2307.2545     -1930.4107    
    906500   320.81841      750.90898     -2283.8421     -1869.9985    
    907000   312.24747      557.95204     -2311.4669     -1908.4569    
    907500   309.72901      458.27005     -2343.1112     -1945.2085    
    908000   295.00564      1271.4038     -2306.9311     -1925.9093    
    908500   306.55665      41.610116     -2314.4182     -1920.5175    
    909000   302.79629     -211.57307     -2310.6471     -1918.5499    
    909500   288.19196      1424.8207     -2308.3181     -1936.6565    
    910000   282.0907       1538.6518     -2339.9406     -1976.0613    
    910500   292.51142      19.843389     -2291.8772     -1917.2983    
    911000   295.99854      261.20525     -2292.6466     -1913.2335    
    911500   304.94844      774.05331     -2331.0238     -1938.0921    
    912000   287.67445      1044.758      -2329.1381     -1959.1187    
    912500   302.18954     -529.49315     -2291.5581     -1902.4905    
    913000   306.97733      2003.4857     -2316.3968     -1920.6138    
    913500   294.81289      879.7372      -2331.86       -1952.7722    
    914000   320.34811      1363.0556     -2328.4552     -1914.0292    
    914500   294.19708      503.94984     -2329.0009     -1949.5799    
    915000   304.58106      1482.3321     -2387.6491     -1994.7668    
    915500   304.06173     -221.86315     -2342.558      -1948.908     
    916000   296.29879     -298.2553      -2299.1851     -1916.9346    
    916500   300.64315      1007.8742     -2315.1745     -1928.0058    
    917000   295.78929      2185.0683     -2344.9297     -1962.0673    
    917500   297.74532      1803.1967     -2296.4253     -1912.5722    
    918000   298.52222      552.71401     -2292.9707     -1908.2086    
    918500   309.73685      310.74534     -2340.4569     -1941.1496    
    919000   314.13179     -473.08125     -2314.6095     -1907.7929    
    919500   294.34755      1122.6009     -2284.7339     -1904.3394    
    920000   295.44927      1204.9503     -2331.7043     -1950.6889    
    920500   289.6635      -52.427062     -2321.7964     -1948.0583    
    921000   311.60772      1785.4956     -2308.2596     -1906.8184    
    921500   282.32678      1573.7529     -2313.3074     -1949.4753    
    922000   294.12235      758.2088      -2323.3124     -1945.0345    
    922500   300.84301      1740.6141     -2277.3458     -1888.0346    
    923000   299.66827      1892.6288     -2322.6837     -1936.5023    
    923500   305.00606      662.97654     -2342.6032     -1948.7181    
    924000   305.28493      1161.5872     -2286.9609     -1892.9484    
    924500   283.43436     -434.60019     -2288.8976     -1923.2851    
    925000   305.47302      1694.7342     -2333.0238     -1940.243     
    925500   288.52703      2101.5693     -2314.1274     -1942.8211    
    926000   314.75679      552.30974     -2331.9208     -1925.245     
    926500   298.59509      849.31522     -2272.9964     -1887.155     
    927000   295.45525      437.5857      -2278.0117     -1895.8362    
    927500   291.90878      2863.0108     -2313.0404     -1935.1472    
    928000   283.77051      171.5389      -2297.0549     -1931.2201    
    928500   309.42011      362.83238     -2285.8954     -1886.0372    
    929000   297.5779      -67.051212     -2315.864      -1932.984     
    929500   285.33801      190.46792     -2302.6596     -1935.0801    
    930000   324.74679      203.73014     -2299.3351     -1880.4443    
    930500   299.19825      876.99686     -2301.6221     -1916.5705    
    931000   291.39143      470.05196     -2303.5215     -1928.245     
    931500   306.62039      852.13111     -2295.1028     -1899.8329    
    932000   310.66758      1211.1404     -2290.0961     -1889.5768    
    932500   296.90235     -485.01494     -2325.2131     -1942.148     
    933000   303.16086      343.70912     -2335.728      -1945.1209    
    933500   299.51864      1521.2825     -2317.5387     -1933.6785    
    934000   304.01232      874.05729     -2291.7086     -1901.0765    
    934500   293.16474      439.97137     -2329.7618     -1951.4239    
    935000   274.97044      888.07426     -2302.863      -1946.7367    
    935500   299.91081      2185.4098     -2300.1988     -1912.1886    
    936000   300.75556     -1046.4651     -2310.249      -1922.4468    
    936500   318.66421      890.31473     -2328.005      -1916.8768    
    937000   301.27748      1925.1558     -2330.5909     -1940.976     
    937500   278.17676      805.42265     -2327.7088     -1968.4988    
    938000   307.31383      753.80742     -2319.6814     -1923.1946    
    938500   295.01866     -400.31567     -2296.5071     -1914.3669    
    939000   318.8711       1118.491      -2311.9069     -1899.487     
    939500   290.8914       2304.5829     -2322.0957     -1945.6644    
    940000   317.55382      1906.5948     -2313.5401     -1902.5397    
    940500   291.11677      1849.8054     -2286.8118     -1911.5576    
    941000   290.3645       1118.7494     -2313.5563     -1939.2356    
    941500   299.49588      244.19519     -2314.1545     -1926.8719    
    942000   299.42402      672.73244     -2292.9901     -1906.3715    
    942500   296.92897     -374.8901      -2337.5229     -1954.5355    
    943000   301.98474      2062.1924     -2314.8159     -1924.8086    
    943500   333.15662     -71.568932     -2332.8155     -1904.3859    
    944000   269.19978      1739.0103     -2288.3582     -1941.8936    
    944500   296.84676      420.71083     -2309.3533     -1927.2393    
    945000   332.49527      1686.2495     -2320.3469     -1891.9687    
    945500   297.57134     -1011.3453     -2323.9608     -1942.007     
    946000   297.93875      247.93903     -2322.2326     -1939.6396    
    946500   314.77333      1303.2359     -2283.1944     -1878.2639    
    947000   307.3344       364.45833     -2294.196      -1898.6587    
    947500   310.99037      1353.6678     -2328.8793     -1926.4251    
    948000   314.91875      2116.5105     -2326.4799     -1920.1796    
    948500   294.47594      640.49042     -2321.73       -1942.4786    
    949000   289.75884     -269.29489     -2332.5939     -1958.617     
    949500   290.8337       1402.5586     -2300.1663     -1925.0782    
    950000   299.16665      1298.7686     -2310.3711     -1927.323     
    950500   289.30605      1221.8091     -2348.6211     -1976.5747    
    951000   288.96205      348.65428     -2305.2447     -1932.9551    
    951500   303.34003     -846.85695     -2309.3208     -1920.7225    
    952000   292.43644      650.20756     -2329.9239     -1954.6736    
    952500   288.8439       803.3619      -2355.375      -1982.2784    
    953000   298.67339      1763.9425     -2307.2606     -1923.2115    
    953500   319.26113     -1218.9222     -2300.5        -1888.3772    
    954000   293.86404     -595.23591     -2307.833      -1928.8568    
    954500   296.16709     -586.1953      -2318.8787     -1938.2949    
    955000   310.64551      757.6745      -2301.0681     -1902.6935    
    955500   300.17109      1566.5097     -2297.6101     -1911.1884    
    956000   294.36612      3816.4304     -2303.2557     -1924.942     
    956500   279.59085      1576.7917     -2336.7097     -1977.1886    
    957000   284.17822      828.70978     -2312.0052     -1947.9243    
    957500   313.697       -617.26142     -2329.7177     -1925.9924    
    958000   302.10125      1921.9657     -2302.1786     -1913.4336    
    958500   321.60369      1382.7335     -2295.1069     -1881.0377    
    959000   296.86754      1236.7651     -2316.9728     -1936.0606    
    959500   298.40759      663.31054     -2309.0401     -1926.6298    
    960000   312.76342      2436.7043     -2314.4282     -1912.8276    
    960500   295.52919      2250.1611     -2345.9872     -1965.9141    
    961000   296.0736       1449.0013     -2304.7691     -1923.5388    
    961500   320.47868     -165.55612     -2313.2178     -1900.8682    
    962000   291.533        965.35289     -2326.2117     -1951.063     
    962500   297.14875      284.89788     -2314.0366     -1932.3402    
    963000   297.57706      399.78297     -2294.7068     -1911.7311    
    963500   284.4645       2823.7755     -2289.3294     -1925.1437    
    964000   283.89524      2649.2623     -2341.6378     -1975.5263    
    964500   274.75647      1993.9911     -2304.24       -1951.3884    
    965000   301.87108     -56.926362     -2307.8902     -1919.2336    
    965500   311.7574       495.04262     -2296.7226     -1895.5163    
    966000   313.46787      952.45487     -2296.8153     -1893.2086    
    966500   291.78726      253.68969     -2308.8163     -1933.0454    
    967000   294.27933      338.26193     -2319.9506     -1939.6188    
    967500   301.3899       3091.742      -2300.1588     -1910.034     
    968000   302.11359     -364.12289     -2303.7506     -1915.7416    
    968500   304.80472      907.08029     -2341.3156     -1948.7491    
    969000   315.83443      1575.7198     -2297.3976     -1890.5239    
    969500   316.51071      26.499295     -2309.6373     -1901.3134    
    970000   283.60023      1394.9609     -2300.6958     -1933.6694    
    970500   310.24686      1172.0115     -2277.7514     -1878.5999    
    971000   293.90703      635.02945     -2295.5972     -1915.04      
    971500   301.98317     -440.74182     -2323.3978     -1934.0543    
    972000   303.64479      2644.2361     -2286.5962     -1894.219     
    972500   307.34232      1482.8913     -2293.8203     -1896.4522    
    973000   305.33852      3073.8289     -2322.4792     -1928.2911    
    973500   293.24949      592.51755     -2323.2542     -1943.67      
    974000   314.62035     -848.24576     -2312.8536     -1905.5545    
    974500   292.4625      -695.64992     -2293.1843     -1916.4506    
    975000   291.08104     -448.70243     -2316.9376     -1941.7218    
    975500   288.4097       239.74678     -2287.7344     -1915.789     
    976000   316.70017      3070.9478     -2319.9582     -1911.6147    
    976500   306.07649      956.02885     -2342.5279     -1949.3442    
    977000   307.77425      1339.6257     -2290.523      -1893.3434    
    977500   308.2523      -314.99712     -2308.4016     -1910.7052    
    978000   310.97621     -98.992031     -2341.3137     -1940.1219    
    978500   271.79089      849.86137     -2324.1842     -1974.1855    
    979000   286.69771      642.16436     -2309.9001     -1940.445     
    979500   285.73819      1190.859      -2279.5595     -1911.0856    
    980000   321.25624      3013.8667     -2273.2157     -1858.8911    
    980500   283.7073       206.96817     -2276.9829     -1912.6944    
    981000   306.91398      1046.4524     -2306.7773     -1911.0988    
    981500   290.42573      1252.3422     -2300.8254     -1927.3657    
    982000   312.44273      1459.4219     -2349.8512     -1946.7609    
    982500   290.40236     -305.80337     -2284.4376     -1910.043     
    983000   289.12815      1027.4621     -2306.2176     -1933.298     
    983500   286.2873       1896.7088     -2322.1647     -1952.9825    
    984000   289.68421      1477.8305     -2306.9762     -1933.0552    
    984500   297.71356      1171.6869     -2287.8084     -1903.6019    
    985000   298.93134      33.998154     -2337.9283     -1951.1308    
    985500   302.45811      1279.6958     -2347.3113     -1958.2565    
    986000   309.10859     -656.58913     -2297.7612     -1897.9116    
    986500   304.40515     -883.62008     -2310.4546     -1917.5359    
    987000   292.16039      1359.3919     -2346.6228     -1968.6046    
    987500   301.32939      649.49036     -2321.7496     -1933.7132    
    988000   303.57616      1357.4161     -2293.7353     -1901.2587    
    988500   316.36837      1523.8115     -2271.8005     -1864.8746    
    989000   290.44529      749.73148     -2295.8205     -1921.0807    
    989500   290.37935      237.0212      -2305.5633     -1932.7968    
    990000   309.91046      499.22411     -2286.1155     -1886.6736    
    990500   287.07936     -19.821594     -2291.6057     -1921.8348    
    991000   282.47501      584.96216     -2301.1685     -1939.2677    
    991500   294.75819      1709.2226     -2281.2425     -1900.8059    
    992000   321.90366      1091.3901     -2286.445      -1872.9022    
    992500   317.7066       860.57357     -2352.7764     -1941.5189    
    993000   303.83971      735.55378     -2337.473      -1945.2533    
    993500   287.10272      897.36609     -2266.7157     -1895.0949    
    994000   300.49019      168.458       -2333.2152     -1947.1695    
    994500   304.93683      1781.2742     -2331.441      -1938.3587    
    995000   318.17363      832.23675     -2324.5165     -1914.6491    
    995500   292.03041      1674.0043     -2344.8204     -1968.6982    
    996000   288.32941      585.26753     -2319.8096     -1949.3902    
    996500   299.31334     -425.2174      -2312.091      -1925.8591    
    997000   290.46661      692.47537     -2297.2778     -1922.7193    
    997500   305.81139     -137.90244     -2285.9217     -1891.1154    
    998000   291.85949      1006.8961     -2304.0194     -1926.3522    
    998500   293.19066     -476.32206     -2319.9066     -1941.0883    
    999000   300.45965      658.1677      -2278.5877     -1892.1069    
    999500   332.14669     -334.81403     -2264.7072     -1836.7026    
   1000000   292.41665      2190.8659     -2283.9205     -1906.892     
   1000500   299.89488      1363.7137     -2336.3043     -1948.2357    
   1001000   298.39263      1244.1645     -2310.3759     -1926.6513    
   1001500   322.65879      1480.8273     -2325.883      -1909.1975    
   1002000   287.16837      1762.5377     -2310.6352     -1939.7578    
   1002500   323.03724      959.42623     -2298.5621     -1882.4431    
   1003000   307.85107      1469.8836     -2315.1076     -1917.9478    
   1003500   285.37033      1159.8164     -2311.5825     -1944.3854    
   1004000   302.01345      963.19803     -2302.7594     -1912.6318    
   1004500   326.85756      1545.8467     -2299.1364     -1879.162     
   1005000   309.93752      925.185       -2327.0357     -1928.0999    
   1005500   297.66137      903.07197     -2322.939      -1939.8649    
   1006000   304.50877     -60.687421     -2330.1099     -1937.9275    
   1006500   299.59908     -744.86466     -2299.4752     -1914.0478    
   1007000   306.78082      184.92365     -2299.2847     -1903.2245    
   1007500   291.04445      1027.1346     -2315.0403     -1939.0605    
   1008000   284.79364      997.0625      -2308.7596     -1942.3292    
   1008500   313.3223      -997.84454     -2301.4929     -1897.9539    
   1009000   286.87348      698.05896     -2300.4399     -1931.2058    
   1009500   284.48419      148.06323     -2330.462      -1964.3257    
   1010000   292.11529      832.55358     -2304.6772     -1929.1568    
   1010500   300.45427      827.4658      -2326.3541     -1939.9128    
   1011000   293.84866      372.82805     -2342.1115     -1964.4213    
   1011500   296.25334      572.28785     -2307.3351     -1926.0991    
   1012000   303.21588     -231.63486     -2285.4296     -1893.987     
   1012500   302.73201      1740.7183     -2305.9088     -1916.1571    
   1013000   290.37467     -551.75251     -2329.8956     -1955.9509    
   1013500   303.44159      896.59101     -2305.9409     -1915.3985    
   1014000   322.44563      678.4352      -2330.0945     -1915.9325    
   1014500   277.86853      245.85454     -2331.4462     -1974.32      
   1015000   292.3506       1651.3549     -2313.2702     -1938.5418    
   1015500   304.55235      1648.6192     -2314.6635     -1922.5478    
   1016000   313.08339      458.89868     -2330.9931     -1928.7976    
   1016500   307.77984      197.46125     -2278.8159     -1882.7747    
   1017000   288.14524      1093.1459     -2292.1374     -1921.2168    
   1017500   294.00427      582.93328     -2306.2395     -1929.625     
   1018000   305.54201      1096.799      -2253.6664     -1862.0525    
   1018500   297.08141      1439.4994     -2283.8236     -1902.3715    
   1019000   305.87004      47.414314     -2310.5993     -1917.1296    
   1019500   329.56669      2620.783      -2327.3578     -1902.6562    
   1020000   287.00607      1054.5291     -2320.4972     -1948.9666    
   1020500   301.88854      417.91993     -2347.6412     -1957.3755    
   1021000   324.5163       706.61266     -2326.8298     -1906.9381    
   1021500   302.03371     -375.42544     -2307.4869     -1917.1973    
   1022000   284.36371      172.45389     -2328.1498     -1961.418     
   1022500   293.3851       425.93271     -2304.5732     -1928.1438    
   1023000   293.84848      1866.3289     -2294.0929     -1915.0734    
   1023500   291.74047      254.78902     -2300.0679     -1922.444     
   1024000   305.54974      442.3595      -2327.4869     -1932.2035    
   1024500   296.57557      574.00614     -2336.4442     -1952.8605    
   1025000   296.31132      531.95557     -2311.0354     -1927.5073    
   1025500   300.50799      2210.2134     -2280.6321     -1893.2705    
   1026000   317.39104      1781.0466     -2328.9443     -1919.4618    
   1026500   315.14325      516.01843     -2338.3285     -1931.4131    
   1027000   297.13363      1383.4426     -2336.9544     -1953.255     
   1027500   274.32684     -190.5871      -2319.6244     -1965.6245    
   1028000   301.31091      302.37361     -2297.1376     -1908.4258    
   1028500   294.14125      3174.9347     -2292.8014     -1913.3109    
   1029000   282.87521      216.71046     -2321.9444     -1956.8907    
   1029500   298.86014      1999.7467     -2285.5796     -1900.7007    
   1030000   306.02097      195.60791     -2302.8584     -1908.9374    
   1030500   298.54816     -1103.8408     -2344.5109     -1959.6395    
   1031000   293.16882      1392.9631     -2314.858      -1936.6016    
   1031500   305.53363      1119.459      -2305.4937     -1909.9945    
   1032000   303.16484      410.32933     -2352.5474     -1961.5417    
   1032500   287.32401      2017.5153     -2301.4101     -1930.0206    
   1033000   313.39124      1121.4597     -2325.5386     -1921.4235    
   1033500   286.76853      895.43884     -2313.2428     -1942.4122    
   1034000   296.07529      831.33819     -2323.7694     -1941.6721    
   1034500   308.74196      1901.3209     -2291.2256     -1891.464     
   1035000   315.57574      1258.1705     -2317.045      -1909.6       
   1035500   305.21059      996.70001     -2321.6232     -1927.6781    
   1036000   286.59562     -1621.9617     -2329.3343     -1959.6644    
   1036500   312.04239      1617.3231     -2320.5216     -1917.758     
   1037000   298.17442     -58.945797     -2291.0003     -1906.076     
   1037500   273.10231      1441.3635     -2312.2382     -1959.4311    
   1038000   300.79939      918.74961     -2313.8064     -1925.7772    
   1038500   299.86499      1436.7698     -2299.1365     -1912.6669    
   1039000   296.92131     -307.45782     -2300.2462     -1917.0398    
   1039500   301.40138     -169.64639     -2323.6249     -1934.4189    
   1040000   293.58835      1913.3134     -2331.7491     -1952.75      
   1040500   297.64514      1867.9834     -2335.0719     -1949.5944    
   1041000   303.5115       855.55492     -2312.2414     -1920.4225    
   1041500   305.25763      2117.7847     -2285.6034     -1891.0589    
   1042000   302.1504       89.225384     -2312.0727     -1922.1648    
   1042500   302.93883      1434.3653     -2338.1531     -1946.9961    
   1043000   283.32891      266.70716     -2263.4422     -1897.8046    
   1043500   307.41489      236.44391     -2310.239      -1912.7311    
   1044000   293.1485       890.60922     -2346.8238     -1968.6596    
   1044500   317.42702      440.55963     -2361.5386     -1952.0311    
   1045000   307.87447      1754.9507     -2307.8774     -1909.4509    
   1045500   307.13833      1892.2508     -2286.2511     -1889.4866    
   1046000   307.39217     -477.23887     -2323.1796     -1926.6232    
   1046500   288.1963       838.41013     -2332.3475     -1959.6194    
   1047000   278.32125      727.96162     -2365.6585     -2006.2751    
   1047500   279.28704      1415.0722     -2304.353      -1942.9489    
   1048000   311.21159      353.00195     -2307.7473     -1904.8751    
   1048500   289.1279       2112.911      -2299.9435     -1926.9313    
   1049000   300.70004      960.32727     -2348.9043     -1959.7955    
   1049500   291.39336      1162.9543     -2304.4708     -1928.3342    
   1050000   311.15964     -302.33784     -2291.8052     -1890.299     
   1050500   291.10696      84.382696     -2319.9743     -1943.0252    
   1051000   299.26425      1842.2944     -2338.8101     -1952.8431    
   1051500   289.38919      2597.6653     -2298.6378     -1925.4683    
   1052000   304.67866      1113.7865     -2282.2359     -1888.9572    
   1052500   306.46569      1433.3446     -2329.309      -1933.5427    
   1053000   309.57829      753.6075      -2319.878      -1919.0864    
   1053500   313.03172      2104.1679     -2276.5612     -1872.5935    
   1054000   318.2019       1266.3879     -2291.9371     -1882.3061    
   1054500   295.68725     -589.17644     -2317.0562     -1937.007     
   1055000   284.4958       2363.3053     -2322.973      -1954.3877    
   1055500   299.71205      1055.8832     -2367.5974     -1980.1473    
   1056000   292.14228      1756.7007     -2298.2887     -1921.3777    
   1056500   291.55261      274.14364     -2289.4468     -1913.4914    
   1057000   282.6113       959.65364     -2314.2409     -1949.885     
   1057500   324.94607      1724.4285     -2324.6459     -1905.2754    
   1058000   312.22353      1427.6663     -2304.6703     -1903.0682    
   1058500   290.00364      1354.8092     -2322.9084     -1949.0476    
   1059000   298.4492       1777.4069     -2303.4248     -1919.1081    
   1059500   320.81279      1356.4458     -2288.3004     -1874.4068    
   1060000   311.73593      844.65728     -2319.9568     -1916.6289    
   1060500   311.13299      1081.021      -2346.3268     -1944.8274    
   1061000   276.19518      895.03842     -2345.9795     -1989.5848    
   1061500   302.18628      699.14114     -2340.2909     -1951.5939    
   1062000   309.11073      3076.011      -2315.0584     -1915.8348    
   1062500   297.07593      1790.889      -2312.4996     -1927.7842    
   1063000   286.89766      2467.1804     -2335.148      -1965.6335    
   1063500   317.27292     -380.15723     -2319.7905     -1910.3098    
   1064000   312.65053      785.82178     -2326.132      -1921.8039    
   1064500   279.24672     -475.07546     -2331.537      -1972.4104    
   1065000   302.0124       2143.9722     -2337.8559     -1948.1525    
   1065500   322.57075     -304.45987     -2334.7649     -1917.4858    
   1066000   313.94595      601.39446     -2266.0304     -1861.1188    
   1066500   299.10002      638.94938     -2296.3583     -1910.6146    
   1067000   317.83735      2901.2528     -2335.7878     -1925.7847    
   1067500   295.15535      1402.9324     -2332.0025     -1950.9573    
   1068000   289.37387     -570.00549     -2310.3899     -1937.3292    
   1068500   313.48996     -160.50222     -2304.1294     -1899.2673    
   1069000   302.04773      52.39804      -2332.8705     -1943.118     
   1069500   292.20733      2652.6569     -2330.2645     -1953.8415    
   1070000   294.1753      -1041.4865     -2302.7202     -1922.0022    
   1070500   315.99866      179.62484     -2310.4024     -1903.284     
   1071000   283.05873      1389.59       -2326.1278     -1962.1765    
   1071500   315.34185      1696.6684     -2331.8828     -1924.8465    
   1072000   318.21306      2116.8071     -2295.5317     -1884.7289    
   1072500   329.41533      93.801285     -2309.3151     -1882.9282    
   1073000   309.41846     -423.64285     -2334.2951     -1933.8264    
   1073500   294.20893      1916.3778     -2293.0914     -1913.5307    
   1074000   301.45554      921.33384     -2281.1818     -1891.8915    
   1074500   291.22847      1183.579      -2302.5068     -1926.94      
   1075000   304.85566      2636.6377     -2326.2847     -1934.0895    
   1075500   288.1105      -738.35855     -2329.6877     -1958.2041    
   1076000   322.42351      1784.7628     -2329.5013     -1913.6113    
   1076500   305.91916      586.81719     -2314.0093     -1918.3882    
   1077000   282.04298     -91.584009     -2327.6919     -1962.3532    
   1077500   293.58646     -289.80267     -2301.2065     -1922.7549    
   1078000   293.52113      1943.7544     -2298.2061     -1920.2862    
   1078500   281.74         505.17137     -2339.8918     -1976.8103    
   1079000   293.27157      275.40777     -2310.3958     -1931.8701    
   1079500   302.53502      378.44784     -2313.6918     -1923.2262    
   1080000   290.34206      128.42697     -2346.7415     -1972.1511    
   1080500   304.13962      647.51925     -2334.6617     -1942.4762    
   1081000   299.12527      1586.5363     -2307.5125     -1921.5446    
   1081500   299.90651      482.34619     -2295.3504     -1908.5534    
   1082000   293.61062      373.59819     -2281.6086     -1902.7874    
   1082500   289.00045      1939.5599     -2310.4777     -1939.5794    
   1083000   309.64432      1834.8371     -2296.8239     -1897.3052    
   1083500   305.11017      2220.5498     -2307.553      -1913.0224    
   1084000   280.9499       2361.7495     -2309.0421     -1946.355     
   1084500   312.52773      788.58729     -2351.4272     -1946.6806    
   1085000   307.67576      1046.8681     -2300.8616     -1904.1261    
   1085500   297.5043       670.74829     -2315.9903     -1931.3194    
   1086000   282.91749      1314.7509     -2326.9528     -1961.5465    
   1086500   277.65492      408.41712     -2275.9499     -1916.8366    
   1087000   303.52596      1108.8753     -2300.7454     -1909.2861    
   1087500   295.96381      1486.6226     -2329.6339     -1948.215     
   1088000   283.77754      926.29961     -2312.4569     -1946.1805    
   1088500   308.18112      176.30546     -2328.5069     -1930.8612    
   1089000   311.26235      1316.8583     -2282.5018     -1879.4721    
   1089500   310.88104      1026.7875     -2323.5431     -1923.1009    
   1090000   323.42643      1686.6777     -2351.2824     -1934.0473    
   1090500   336.91142      24.958693     -2376.7189     -1942.519     
   1091000   303.93464      1335.3003     -2345.5237     -1951.8237    
   1091500   307.06457      1816.0169     -2298.9071     -1901.2315    
   1092000   322.55183     -305.72806     -2352.6275     -1936.6661    
   1092500   313.76352      1915.1128     -2307.2064     -1900.8689    
   1093000   294.70706     -19.090081     -2279.4392     -1898.519     
   1093500   298.26074      504.34752     -2329.95       -1943.5477    
   1094000   309.09572      325.52819     -2333.711      -1933.425     
   1094500   317.8394       1377.0594     -2297.0538     -1886.673     
   1095000   290.04124      1086.7167     -2289.0927     -1914.8522    
   1095500   303.7648       788.62006     -2321.4943     -1929.949     
   1096000   304.61847      97.292782     -2359.1798     -1965.5687    
   1096500   302.95316      1748.4047     -2313.9813     -1921.6288    
   1097000   320.43201      1918.5545     -2344.069      -1930.2143    
   1097500   297.61064      745.88788     -2373.9822     -1988.8625    
   1098000   320.00839      520.27818     -2362.3095     -1949.1716    
   1098500   315.06947      1610.5436     -2359.4161     -1953.0487    
   1099000   279.93432      1106.8536     -2284.7569     -1923.5293    
   1099500   305.56403      1006.9926     -2307.2701     -1913.9979    
   1100000   309.10729     -44.71017      -2337.8149     -1937.5647    
   1100500   305.34501      1588.6886     -2312.7709     -1918.6579    
   1101000   306.18068      1900.6225     -2266.7811     -1871.8244    
   1101500   303.13377      411.97649     -2306.1796     -1913.9602    
   1102000   291.03472      474.40816     -2322.8904     -1945.9291    
   1102500   303.95028      1475.8897     -2299.9804     -1907.5498    
   1103000   302.85142      229.34107     -2299.7613     -1908.2373    
   1103500   294.97872      1829.1117     -2315.0588     -1933.9182    
   1104000   286.25274      1803.0832     -2288.0198     -1918.7879    
   1104500   312.08448      839.43197     -2296.7914     -1895.9878    
   1105000   288.03018      1122.7768     -2323.5452     -1950.7651    
   1105500   309.05989      75.858345     -2316.7205     -1916.4932    
   1106000   303.5198       1840.0708     -2295.8403     -1904.3354    
   1106500   283.53897      319.0701      -2293.912      -1930.3244    
   1107000   294.83947      1921.7106     -2295.7173     -1917.4269    
   1107500   291.50755      280.45453     -2314.2157     -1937.7927    
   1108000   308.078        1003.3711     -2326.2198     -1928.2598    
   1108500   295.41225      971.43818     -2298.0788     -1916.2233    
   1109000   284.10944     -244.66423     -2342.0609     -1974.3863    
   1109500   299.89486      1130.1424     -2320.5721     -1933.5856    
   1110000   315.96926      2216.4468     -2332.6225     -1923.8299    
   1110500   300.80645      1005.9313     -2335.225      -1945.7923    
   1111000   282.52107      793.61936     -2284.1259     -1919.8131    
   1111500   296.67896      2327.4098     -2284.287      -1901.4714    
   1112000   301.89041      194.1574      -2332.9451     -1943.4941    
   1112500   298.18332     -48.990591     -2334.3793     -1950.6995    
   1113000   297.53464      546.82152     -2286.1012     -1901.4013    
   1113500   297.33235      1000.3893     -2320.5474     -1936.917     
   1114000   283.19993      1046.7149     -2316.0227     -1951.9937    
   1114500   314.7785       395.80153     -2330.4405     -1924.0998    
   1115000   327.36146      1878.9639     -2282.0714     -1859.2748    
   1115500   315.34705     -726.28078     -2296.4656     -1889.3632    
   1116000   295.03728      1547.8871     -2313.6066     -1932.6217    
   1116500   280.68072      1911.3239     -2328.026      -1965.8901    
   1117000   290.77826      723.01271     -2347.9687     -1972.6417    
   1117500   318.52        -1047.2402     -2324.5843     -1916.6941    
   1118000   310.7039      -177.2274      -2300.9675     -1900.7167    
   1118500   327.68471      457.32757     -2308.4451     -1886.7755    
   1119000   301.57463     -12.133317     -2323.0335     -1934.0214    
   1119500   298.30921      625.17435     -2336.6238     -1952.1427    
   1120000   300.04802     -363.18014     -2324.6678     -1937.9203    
   1120500   286.04496      91.58206      -2278.8727     -1910.2445    
   1121000   308.36194      830.18163     -2263.3992     -1865.4615    
   1121500   289.72831      1855.7183     -2302.0206     -1927.9813    
   1122000   308.20297      98.039527     -2350.5012     -1953.6028    
   1122500   290.75237      687.56675     -2333.6696     -1957.412     
   1123000   310.2837       1844.4923     -2304.0152     -1903.7175    
   1123500   290.50775     -67.389622     -2319.2794     -1944.4126    
   1124000   302.46006      1001.3591     -2333.6989     -1942.1315    
   1124500   306.26623      793.62612     -2307.7491     -1912.1642    
   1125000   276.27232      732.44302     -2320.9383     -1965.7496    
   1125500   291.29503      1937.1581     -2312.8202     -1938.2644    
   1126000   313.16505      2930.6161     -2316.5103     -1912.3369    
   1126500   309.9868       309.48727     -2333.66       -1934.1114    
   1127000   279.49976      432.87789     -2303.7161     -1942.9046    
   1127500   303.13693      666.66751     -2295.0324     -1903.3554    
   1128000   292.17383      710.97412     -2267.2283     -1890.4192    
   1128500   299.72078     -204.58364     -2324.0742     -1937.7505    
   1129000   314.30815     -335.98707     -2318.6462     -1913.229     
   1129500   310.68464      2391.1608     -2291.2003     -1890.9137    
   1130000   312.59585      631.6575      -2318.7717     -1916.6448    
   1130500   289.34493      827.74842     -2291.4638     -1918.3891    
   1131000   288.60903      1058.4287     -2298.049      -1925.2469    
   1131500   293.03834      1185.2627     -2318.1609     -1938.912     
   1132000   317.43021      1165.8516     -2324.8655     -1916.4805    
   1132500   293.91486      746.72427     -2291.4068     -1912.0686    
   1133000   304.31616      1485.769      -2355.2725     -1962.7245    
   1133500   305.52772      1024.6855     -2322.3993     -1929.7125    
   1134000   319.22596      2094.6364     -2318.6477     -1906.6818    
   1134500   277.84451      1844.7199     -2293.3428     -1934.327     
   1135000   288.88602      1768.6573     -2353.5055     -1980.5675    
   1135500   311.37446      1953.7095     -2333.788      -1932.2257    
   1136000   297.1687       1096.7846     -2298.5845     -1914.8976    
   1136500   309.77181      556.62851     -2324.8749     -1924.6245    
   1137000   289.71696      25.136222     -2341.0851     -1969.0407    
   1137500   298.59199      565.76967     -2299.2978     -1914.622     
   1138000   311.38802     -133.34787     -2309.2241     -1906.0615    
   1138500   283.59561      2643.8883     -2325.1743     -1957.694     
   1139000   300.37921      574.00364     -2334.8993     -1945.8401    
   1139500   311.74897      1595.2929     -2322.7467     -1920.5807    
   1140000   295.51775      2425.4411     -2308.6495     -1927.225     
   1140500   284.12904     -643.1019      -2344.3117     -1976.2168    
   1141000   298.0625       1475.7909     -2298.5181     -1913.803     
   1141500   296.8501       1160.8047     -2318.3948     -1935.3523    
   1142000   308.67124      1364.3742     -2330.4566     -1931.7988    
   1142500   308.95533     -1140.9256     -2286.8558     -1886.5101    
   1143000   304.36351      3015.1734     -2318.7374     -1925.9729    
   1143500   282.44652      150.71668     -2303.8233     -1937.8981    
   1144000   295.60398      2163.8507     -2308.7741     -1926.8233    
   1144500   293.77243      774.6649      -2306.2052     -1926.7046    
   1145000   306.18187      1767.5697     -2269.0203     -1874.8269    
   1145500   306.76839      1891.0388     -2319.8695     -1922.9271    
   1146000   298.37029      843.28435     -2314.5226     -1930.7497    
   1146500   312.55514     -276.08543     -2325.845      -1921.4638    
   1147000   301.60055      960.44225     -2294.1816     -1904.9179    
   1147500   288.99913     -110.92527     -2320.9511     -1948.2174    
   1148000   295.54271     -918.6407      -2336.7102     -1953.8165    
   1148500   306.24471      1471.4648     -2318.3252     -1923.1059    
   1149000   291.42448      1233.0832     -2325.9942     -1949.8861    
   1149500   279.66015      981.18699     -2343.0348     -1980.8185    
   1150000   289.37553      188.33375     -2334.1494     -1959.6085    
   1150500   308.64032      1057.1787     -2317.9017     -1919.6298    
   1151000   288.30369      1187.0605     -2298.1218     -1926.5147    
   1151500   295.00575      1672.8216     -2343.1944     -1964.5382    
   1152000   303.89705      914.12266     -2305.453      -1915.092     
   1152500   301.55168      1347.665      -2303.7285     -1914.8897    
   1153000   314.86062     -68.682379     -2342.4567     -1935.8245    
   1153500   298.99845      1079.5759     -2356.9088     -1970.8122    
   1154000   292.86265      434.62729     -2291.3446     -1913.8453    
   1154500   290.66183      1970.4302     -2295.4298     -1919.9432    
   1155000   293.83759      1224.2236     -2353.0281     -1974.3467    
   1155500   307.61207     -339.86747     -2341.0695     -1944.7919    
   1156000   303.69493     -402.26529     -2299.7792     -1906.9449    
   1156500   291.67131      798.32829     -2274.523      -1897.6917    
   1157000   289.03063     -233.92618     -2319.1655     -1946.4294    
   1157500   306.9517       3323.9899     -2339.0949     -1943.5571    
   1158000   306.94752      1758.2981     -2274.376      -1879.4085    
   1158500   288.90736      2374.0791     -2290.2122     -1919.5349    
   1159000   280.53323      983.22838     -2288.0503     -1927.2022    
   1159500   298.35591      1579.9042     -2304.0038     -1919.3237    
   1160000   305.57661      1398.3128     -2318.7764     -1924.7277    
   1160500   286.04003     -293.73704     -2348.2535     -1978.8915    
   1161000   302.55103      2317.2492     -2339.2766     -1948.6332    
   1161500   295.15802      1678.2424     -2308.9852     -1927.3534    
   1162000   305.37701      192.62917     -2326.6801     -1932.4552    
   1162500   306.91804      2288.519      -2287.8389     -1890.8954    
   1163000   307.54387     -30.813993     -2336.5294     -1938.1798    
   1163500   294.0574       997.31019     -2320.5947     -1941.4056    
   1164000   290.12266      2032.1023     -2291.5235     -1916.9351    
   1164500   292.353       -116.25638     -2305.3712     -1928.3112    
   1165000   292.12299      144.37532     -2303.0286     -1926.3012    
   1165500   331.37694      129.1953      -2322.4984     -1894.0051    
   1166000   275.29405      2582.9476     -2294.563      -1940.1338    
   1166500   317.85811      2626.4725     -2343.2111     -1933.2922    
   1167000   311.71562      790.90273     -2273.713      -1871.6781    
   1167500   317.54696     -184.10325     -2311.3487     -1901.9833    
   1168000   312.51214     -625.51616     -2326.0259     -1922.4054    
   1168500   295.82728      918.3019      -2308.0656     -1926.4271    
   1169000   314.67195      1950.5319     -2303.2209     -1896.4684    
   1169500   296.97564      286.39958     -2305.8953     -1922.5368    
   1170000   295.29539     -336.76922     -2337.2474     -1956.2648    
   1170500   311.06725      1080.6388     -2314.2437     -1912.6806    
   1171000   295.31007      1174.898      -2294.9555     -1913.7337    
   1171500   282.26764      993.12623     -2350.1721     -1986.6134    
   1172000   298.67996     -441.1016      -2320.0158     -1936.1758    
   1172500   296.83849     -941.10023     -2289.0697     -1907.5142    
   1173000   314.48878      454.33556     -2279.0717     -1873.5099    
   1173500   315.86732      2099.4807     -2321.2492     -1914.2301    
   1174000   301.20107      1805.9729     -2324.9416     -1936.2516    
   1174500   293.26921      2665.7618     -2341.7688     -1963.3374    
   1175000   291.62035      1741.274      -2318.9768     -1943.0947    
   1175500   309.24932      920.44463     -2322.7077     -1923.0058    
   1176000   297.21386      1249.9686     -2325.3991     -1940.5283    
   1176500   296.70404      1069.4832     -2343.8627     -1959.6219    
   1177000   317.53521      810.84667     -2321.4154     -1911.2858    
   1177500   303.11623     -39.800122     -2312.4312     -1920.8838    
   1178000   288.63806      2002.8682     -2316.2335     -1942.2725    
   1178500   274.42625      1669.4672     -2328.6833     -1975.1731    
   1179000   310.47739      716.03244     -2326.5265     -1925.7982    
   1179500   301.59213      55.043888     -2295.4388     -1906.3074    
   1180000   292.02964      1538.3028     -2306.5855     -1929.4618    
   1180500   284.52754      2221.3201     -2326.5893     -1957.9304    
   1181000   314.48379      1670.8671     -2312.1328     -1905.5537    
   1181500   297.72231      1019.6658     -2286.2692     -1902.1286    
   1182000   287.18675      1243.5923     -2335.3369     -1964.953     
   1182500   293.4784       79.787719     -2315.1505     -1938.1028    
   1183000   295.41348      2113.7132     -2292.3707     -1911.0369    
   1183500   310.32133      361.56311     -2273.4401     -1872.822     
   1184000   299.62241      1666.1763     -2316.698      -1928.7269    
   1184500   309.12224     -1198.4756     -2314.5459     -1915.4484    
   1185000   304.5211       1155.0002     -2281.2141     -1888.091     
   1185500   290.41517      1261.6109     -2288.9601     -1914.1514    
   1186000   298.3577       786.51688     -2327.8533     -1942.9019    
   1186500   289.48247      1329.589      -2349.5439     -1975.6494    
   1187000   297.24631      1739.9114     -2307.0579     -1923.4496    
   1187500   318.61208      1632.2552     -2323.4049     -1910.8163    
   1188000   275.98775     -273.82458     -2316.968      -1960.2034    
   1188500   314.751        898.73998     -2334.9301     -1927.9685    
   1189000   294.00809      1424.3913     -2290.1525     -1909.41      
   1189500   301.31575      306.28981     -2311.6625     -1922.2945    
   1190000   289.11124      86.829941     -2334.7968     -1961.6409    
   1190500   310.17273      2893.0879     -2313.0946     -1912.6386    
   1191000   296.1733       1573.2945     -2293.0017     -1909.2815    
   1191500   292.97261      190.44993     -2338.8412     -1959.5336    
   1192000   284.73994      911.51568     -2312.1259     -1943.2485    
   1192500   289.42855      583.54424     -2304.3862     -1930.4473    
   1193000   296.3611       930.6758      -2316.5345     -1932.7701    
   1193500   315.5783       1416.756      -2335.7461     -1928.3593    
   1194000   312.18022      1116.7273     -2308.7193     -1904.5207    
   1194500   294.77264      114.40653     -2321.7428     -1940.9482    
   1195000   297.27517      642.37505     -2324.8737     -1939.779     
   1195500   301.82099      1669.8539     -2270.0444     -1880.4039    
   1196000   283.32994      2536.7931     -2280.5424     -1916.617     
   1196500   290.53656      791.03928     -2317.6734     -1944.6664    
   1197000   286.85928      1405.3244     -2350.4168     -1980.0323    
   1197500   286.09722      1130.3014     -2297.428      -1928.2215    
   1198000   311.22205      1357.9032     -2320.6158     -1918.9889    
   1198500   286.37632      866.09542     -2331.2363     -1960.1901    
   1199000   298.17636     -1191.5306     -2337.104      -1951.9615    
   1199500   297.73909      466.57212     -2284.2476     -1900.0807    
   1200000   285.64696      874.42024     -2294.5792     -1925.803     
   1200500   289.09419      231.82232     -2325.9913     -1953.0658    
   1201000   326.05796      903.58045     -2313.9314     -1892.9844    
   1201500   300.38794      1751.3783     -2324.6596     -1937.113     
   1202000   289.88369     -210.14774     -2322.9846     -1948.9297    
   1202500   294.33658     -836.90743     -2316.5677     -1935.6342    
   1203000   290.29464     -284.2963      -2299.889      -1924.3121    
   1203500   312.5195       1212.2778     -2297.6631     -1893.8579    
   1204000   296.74         2183.2088     -2270.5082     -1887.4504    
   1204500   301.51646      979.42381     -2325.9827     -1936.9693    
   1205000   307.66264     -131.6862      -2311.365      -1914.1296    
   1205500   314.46037      1495.2138     -2271.7641     -1864.5964    
   1206000   309.91326     -655.27239     -2327.8246     -1928.0039    
   1206500   294.03966      1349.7128     -2329.8904     -1950.8532    
   1207000   317.01494     -89.088935     -2317.8351     -1908.2686    
   1207500   319.07218      1709.6432     -2327.177      -1915.7258    
   1208000   298.36728      626.15669     -2339.6429     -1954.5728    
   1208500   282.81808      1311.0487     -2273.9433     -1908.6302    
   1209000   301.60331      1553.3482     -2298.3524     -1908.9991    
   1209500   298.14747     -319.33356     -2316.6222     -1930.4745    
   1210000   317.55885     -943.04511     -2333.7361     -1924.0679    
   1210500   298.20515     -602.75118     -2325.7015     -1941.0085    
   1211000   283.54146      1419.3241     -2314.2735     -1948.7562    
   1211500   308.90567      724.27174     -2298.2505     -1898.9077    
   1212000   303.00236      636.9251      -2334.387      -1943.6462    
   1212500   306.91717      572.31201     -2325.8864     -1931.6753    
   1213000   309.10456      1138.2241     -2307.9029     -1907.8864    
   1213500   310.86695      2410.3601     -2302.8326     -1901.3011    
   1214000   296.65097     -316.74321     -2335.0282     -1952.2583    
   1214500   309.34711      1117          -2325.7101     -1925.1326    
   1215000   298.41902      1573.1462     -2286.8699     -1901.2975    
   1215500   281.38213      2023.7483     -2293.7763     -1930.72      
   1216000   289.41097      1471.7799     -2298.5093     -1923.5746    
   1216500   305.33134      269.33978     -2312.6862     -1917.489     
   1217000   303.66017      1068.8242     -2329.8428     -1936.6352    
   1217500   297.56511      800.68507     -2336.2758     -1952.5697    
   1218000   312.8224      -341.95168     -2322.474      -1917.9484    
   1218500   314.17681      137.28108     -2300.1885     -1894.8657    
   1219000   292.81098      1584.1741     -2326.1862     -1948.4206    
   1219500   311.16604      100.04797     -2317.2028     -1914.859     
   1220000   303.64836      2578.5987     -2286.1603     -1894.1573    
   1220500   278.40869      1608.4983     -2309.1579     -1949.6005    
   1221000   290.14295      1282.4983     -2281.9585     -1907.2092    
   1221500   302.27424      1356.9611     -2301.4279     -1910.3493    
   1222000   310.0677       415.41538     -2323.7626     -1922.9392    
   1222500   313.85348      3370.5573     -2310.5074     -1903.9907    
   1223000   279.98942      2128.2403     -2284.3182     -1924.2222    
   1223500   301.4393       900.2948      -2341.2345     -1952.2887    
   1224000   318.01937      948.45513     -2308.2719     -1897.988     
   1224500   301.96033      2649.0352     -2302.4472     -1913.3048    
   1225000   285.60885      669.64442     -2319.2111     -1950.7073    
   1225500   300.63627      1271.7486     -2315.8371     -1928.4585    
   1226000   299.41006      616.35466     -2286.7671     -1899.0119    
   1226500   299.04235      150.03414     -2324.8227     -1938.3853    
   1227000   296.03206      627.47581     -2318.6464     -1936.2619    
   1227500   319.59445      2047.9125     -2318.2694     -1907.1827    
   1228000   327.36983     -267.709       -2286.753      -1862.8866    
   1228500   295.05426      1055.8123     -2311.5052     -1930.5885    
   1229000   282.01825      1965.6515     -2324.5614     -1959.1257    
   1229500   308.51143      1289.1535     -2304.6808     -1906.9358    
   1230000   287.56981      986.87638     -2299.5515     -1928.5513    
   1230500   284.04942      671.02637     -2347.3671     -1980.9628    
   1231000   288.14808      1289.667      -2341.704      -1970.4223    
   1231500   296.01802      721.48527     -2318.8403     -1937.0843    
   1232000   320.76872      1789.5665     -2305.0277     -1891.58      
   1232500   304.33659      530.16046     -2333.3967     -1939.2339    
   1233000   291.24304      2633.5067     -2305.3461     -1929.045     
   1233500   303.51759      22.517167     -2289.911      -1898.2922    
   1234000   274.20793      137.41847     -2306.9997     -1953.0559    
   1234500   300.41164      1658.1415     -2329.0406     -1940.6811    
   1235000   296.08435      2415.1779     -2275.0807     -1892.8927    
   1235500   306.32752     -197.02803     -2285.2054     -1888.8748    
   1236000   310.49769      2129.0793     -2317.9458     -1916.5307    
   1236500   286.97869     -312.7011      -2323.45       -1952.7346    
   1237000   313.21755      1993.8169     -2299.2516     -1895.5264    
   1237500   295.1094       901.5501      -2302.3835     -1922.7318    
   1238000   289.64143      994.42434     -2319.636      -1945.8505    
   1238500   285.20042      725.62703     -2362.435      -1996.3768    
   1239000   298.62653      409.7164      -2333.0641     -1949.2751    
   1239500   293.33845      571.91353     -2293.4605     -1916.2779    
   1240000   301.43742     -46.731887     -2291.035      -1902.6875    
   1240500   308.41099      1624.8628     -2351.933      -1955.4252    
   1241000   296.34333      1629.5401     -2313.5558     -1932.214     
   1241500   312.72064      1271.3572     -2283.8168     -1881.2935    
   1242000   298.01566      27.278619     -2308.2519     -1925.3143    
   1242500   291.64255      967.3224      -2310.4987     -1937.1915    
   1243000   304.6625       1503.828      -2291.8131     -1900.5927    
   1243500   283.47611      1066.5781     -2307.1991     -1942.6179    
   1244000   298.17479      1268.4093     -2324.7108     -1941.1067    
   1244500   306.11186      443.17788     -2295.1046     -1900.9436    
   1245000   308.25694      1794.3896     -2249.7942     -1854.0869    
   1245500   308.14302      207.84539     -2307.3079     -1909.3741    
   1246000   302.25102      900.59017     -2301.3989     -1912.5561    
   1246500   293.41591      587.55177     -2307.3716     -1931.8953    
   1247000   285.18163      1061.2994     -2312.6803     -1944.6231    
   1247500   303.48561      190.65116     -2286.8651     -1897.1481    
   1248000   313.05603      94.195059     -2320.7177     -1918.259     
   1248500   305.57335      1606.2266     -2314.3575     -1921.0108    
   1249000   320.98882     -218.58704     -2290.8623     -1876.2732    
   1249500   286.39857      1627.926      -2278.6452     -1909.4928    
   1250000   284.95484      1636.1168     -2294.4606     -1927.166     
   1250500   303.00051      166.16743     -2313.4183     -1922.65      
   1251000   317.51695      1157.8267     -2308.8809     -1898.3923    
   1251500   337.12225      1035.1        -2310.8216     -1876.1504    
   1252000   291.88322      523.02823     -2313.8711     -1937.2823    
   1252500   300.28799      468.94306     -2322.0973     -1933.4943    
   1253000   310.36038      1592.994      -2286.5451     -1886.4108    
   1253500   292.66127     -682.25958     -2312.8173     -1936.2652    
   1254000   289.47557      2471.2815     -2294.5227     -1921.3568    
   1254500   314.40387      273.27619     -2298.809      -1893.8052    
   1255000   304.12701      1964.6488     -2286.5268     -1894.5706    
   1255500   298.33815      1476.2896     -2324.21       -1939.8254    
   1256000   321.91475      902.03273     -2325.7577     -1910.6262    
   1256500   296.73358      1907.1433     -2261.1232     -1878.9477    
   1257000   296.54841      2568.7187     -2329.9986     -1949.1916    
   1257500   306.40327      1284.9983     -2328.2276     -1932.08      
   1258000   289.43784      1513.479      -2277.5403     -1905.4288    
   1258500   296.84718      640.47814     -2330.4435     -1946.2755    
   1259000   320.36315      1894.7803     -2345.0837     -1931.7311    
   1259500   293.61666      1894.1935     -2286.8018     -1906.5309    
   1260000   310.97304      1188.2025     -2271.6525     -1869.3411    
   1260500   299.60576      1346.124      -2317.0557     -1930.3917    
   1261000   302.82629      1526.1632     -2328.4918     -1937.7117    
   1261500   320.19193      1081.476      -2315.7651     -1902.5646    
   1262000   308.95617     -272.75434     -2294.7035     -1895.3352    
   1262500   300.71285     -758.78174     -2349.5218     -1961.4409    
   1263000   314.75706      58.539637     -2331.8746     -1926.385     
   1263500   299.66175     -45.77748      -2296.6229     -1909.7874    
   1264000   299.002        1671.3452     -2345.1151     -1960.3905    
   1264500   290.90645      221.16011     -2320.1169     -1945.3097    
   1265000   312.19933     -561.93843     -2323.7716     -1920.0065    
   1265500   295.38681      1985.6879     -2291.3495     -1910.9795    
   1266000   325.79448      1445.0439     -2281.1159     -1859.666     
   1266500   303.29788      2221.3156     -2301.7621     -1910.5248    
   1267000   284.89602      1072.641      -2305.2377     -1938.0576    
   1267500   308.43241     -349.17093     -2292.4278     -1896.5173    
   1268000   303.80641     -121.66591     -2282.6328     -1891.2894    
   1268500   304.82779     -112.11337     -2308.6659     -1913.9487    
   1269000   306.23243      599.86954     -2334.0879     -1939.569     
   1269500   289.52144      1024.4311     -2345.9328     -1973.0314    
   1270000   306.77222      2133.0034     -2314.0294     -1918.9364    
   1270500   290.8105       1039.3493     -2325.7817     -1951.6899    
   1271000   285.9213      -369.2371      -2362.3717     -1995.083     
   1271500   299.31368      831.64107     -2355.3704     -1970.0262    
   1272000   298.92821      1347.2222     -2316.8724     -1930.083     
   1272500   307.90489      2460.0428     -2289.4771     -1892.1034    
   1273000   301.77591      2339.9668     -2285.0426     -1897.2489    
   1273500   286.48312      634.31521     -2310.097      -1943.5818    
   1274000   307.44085      2065.38       -2294.0036     -1897.3977    
   1274500   297.91617      487.46513     -2289.0282     -1904.4817    
   1275000   288.1289       507.09231     -2301.8253     -1931.3488    
   1275500   309.38725      2653.2956     -2274.6167     -1876.1805    
   1276000   306.06088      749.54295     -2305.4623     -1911.7575    
   1276500   299.24327      1158.8605     -2307.7223     -1922.9725    
   1277000   311.7266       946.97329     -2282.5541     -1880.0138    
   1277500   307.58155      537.59701     -2256.658      -1860.7256    
   1278000   310.4117       851.79134     -2312.537      -1914.9516    
   1278500   290.53586      340.6502      -2325.7669     -1953.7747    
   1279000   297.61577      900.93076     -2298.8825     -1917.563     
   1279500   325.91996     -331.70526     -2305.0251     -1885.7365    
   1280000   310.03002     -66.122378     -2313.1148     -1916.4469    
   1280500   282.2874       1763.9368     -2294.4946     -1932.4429    
   1281000   279.80977     -453.73294     -2316.0412     -1956.0953    
   1281500   308.99156      205.63467     -2297.6098     -1900.2538    
   1282000   325.0286       1940.1956     -2330.7531     -1912.6517    
   1282500   292.25704      573.07625     -2322.9197     -1946.8576    
   1283000   318.58345      548.08973     -2336.3833     -1926.853     
   1283500   311.63303      1198.622      -2278.0646     -1877.0728    
   1284000   287.086        1766.9164     -2305.0266     -1935.8045    
   1284500   304.75541      877.39401     -2333.2205     -1941.7182    
   1285000   296.07847      1113.7987     -2301.6337     -1920.7795    
   1285500   327.07655      2360.1696     -2302.8741     -1883.1593    
   1286000   292.95177     -146.79898     -2325.5498     -1949.7483    
   1286500   282.58528      1685.8982     -2301.6185     -1938.14      
   1287000   306.07885      3162.4261     -2294.0284     -1901.446     
   1287500   306.06894      1449.2093     -2308.8252     -1915.3551    
   1288000   288.45061      1564.0178     -2335.4113     -1964.6285    
   1288500   312.46451      792.23827     -2326.3424     -1924.6375    
   1289000   287.32617      221.50952     -2291.7303     -1923.846     
   1289500   277.85611      667.69556     -2318.9899     -1961.2585    
   1290000   307.66879      1352.4508     -2348.2346     -1951.7934    
   1290500   293.83636      1236.9775     -2291.7191     -1913.8016    
   1291000   300.16239     -717.33573     -2325.9006     -1941.2343    
   1291500   310.36221      168.04538     -2357.039      -1955.9693    
   1292000   305.02588      294.24545     -2294.3748     -1902.2551    
   1292500   303.33493      1538.1778     -2317.7133     -1927.4365    
   1293000   288.9114       1436.5397     -2337.5275     -1965.8917    
   1293500   296.51701      189.39294     -2324.237      -1941.5607    
   1294000   292.83865      1634.6014     -2303.5427     -1926.9593    
   1294500   290.07449      2104.059      -2304.2129     -1931.1003    
   1295000   296.91352      982.54274     -2324.671      -1943.5669    
   1295500   274.17451      1016.4916     -2306.4781     -1953.729     
   1296000   295.76091      655.04369     -2281.3432     -1901.7767    
   1296500   276.03192      2121.4239     -2294.2958     -1939.2504    
   1297000   275.41124     -540.97264     -2325.1774     -1971.9781    
   1297500   304.34711      234.78269     -2349.644      -1957.9586    
   1298000   319.70649      444.36577     -2328.4859     -1915.4125    
   1298500   296.47403     -284.32224     -2335.1725     -1955.0254    
   1299000   307.30582      2196.8436     -2345.5928     -1949.32      
   1299500   310.05267      2540.789      -2314.0996     -1914.2632    
   1300000   285.4417       1239.8994     -2317.5864     -1949.8066    
   1300500   302.07024      1731.0914     -2278.4254     -1889.7476    
   1301000   290.19203      118.37354     -2288.4893     -1915.6862    
   1301500   294.41159      615.77074     -2322.3653     -1942.0493    
   1302000   286.50559      1590.6182     -2303.872      -1935.3588    
   1302500   319.73567     -225.80152     -2304.2659     -1892.7318    
   1303000   308.85254     -550.20666     -2334.0751     -1936.5593    
   1303500   293.81141      532.08505     -2311.0828     -1932.7799    
   1304000   304.89779      1613.7803     -2306.6537     -1914.8885    
   1304500   305.96325      2332.0346     -2310.5624     -1916.7301    
   1305000   296.8207      -4.1157047     -2310.6099     -1928.2592    
   1305500   323.05651      1776.5384     -2306.886      -1891.0678    
   1306000   299.93974      1207.935      -2306.703      -1921.156     
   1306500   295.77733     -444.9991      -2329.203      -1947.5178    
   1307000   335.35018      2026.9318     -2314.2069     -1883.3788    
   1307500   323.44507      855.21706     -2315.2168     -1898.5732    
   1308000   278.87211      1809.27       -2291.7745     -1933.551     
   1308500   270.29588      852.72056     -2338.4554     -1991.2793    
   1309000   298.75946      1881.8755     -2322.3039     -1936.5233    
   1309500   303.96032      1689.6689     -2301.1632     -1910.9596    
   1310000   300.547        1316.7264     -2313.005      -1927.4363    
   1310500   306.61442      373.82648     -2345.6073     -1951.0839    
   1311000   310.41235      1729.5439     -2305.7023     -1908.273     
   1311500   302.361        1287.1047     -2300.6481     -1912.4662    
   1312000   290.42469      1332.7163     -2336.8744     -1962.2153    
   1312500   301.59053      1564.409      -2312.655      -1924.3599    
   1313000   300.51599      1316.6051     -2300.391      -1913.6937    
   1313500   280.51107      437.94357     -2324.4215     -1964.3176    
   1314000   291.98636     -1081.0103     -2321.9658     -1945.0737    
   1314500   316.27802      1033.8561     -2333.8792     -1928.4605    
   1315000   289.01802      1090.4111     -2335.892      -1963.2347    
   1315500   288.92925      500.01878     -2346.6995     -1975.4575    
   1316000   283.64294     -26.917776     -2292.2539     -1927.4318    
   1316500   300.26226      2713.5479     -2313.2932     -1927.8527    
   1317000   288.27673     -1288.6118     -2334.5446     -1965.687     
   1317500   318.63239      870.14153     -2313.8785     -1904.3482    
   1318000   312.1604       1311.9625     -2320.1007     -1919.2454    
   1318500   285.40445      1011.5323     -2336.0724     -1968.4043    
   1319000   276.61468      947.34743     -2335.7547     -1977.7847    
   1319500   303.88419      593.57638     -2319.5002     -1927.7861    
   1320000   289.84384      1656.9111     -2295.6578     -1922.2455    
   1320500   273.59339      102.01993     -2316.6006     -1963.0563    
   1321000   319.03868      558.66551     -2329.6294     -1918.1148    
   1321500   318.2036       1416.7226     -2325.9088     -1915.7622    
   1322000   273.91176      1060.646      -2320.3146     -1965.6327    
   1322500   288.46697      323.4763      -2347.6233     -1974.2888    
   1323000   288.712        1849.4791     -2299.5798     -1927.5461    
   1323500   311.24415      1598.7064     -2307.8186     -1906.2975    
   1324000   291.37914      641.34555     -2323.3956     -1947.4512    
   1324500   286.90316      1042.171      -2329.6525     -1958.0514    
   1325000   309.32303      1961.6522     -2309.0318     -1910.0921    
   1325500   299.69332      1909.0592     -2325.5263     -1939.3253    
   1326000   311.88727      2736.5829     -2350.4431     -1948.0792    
   1326500   294.96924      594.55858     -2302.8083     -1922.4018    
   1327000   306.71763      833.92535     -2305.847      -1909.265     
   1327500   297.8822       2380.4082     -2312.9506     -1927.6204    
   1328000   285.3062      -643.90862     -2332.8916     -1964.4831    
   1328500   273.4732       162.91258     -2353.3045     -1998.8134    
   1329000   299.19564      2264.1022     -2319.7974     -1932.1607    
   1329500   308.28431      722.38362     -2289.8996     -1891.4954    
   1330000   304.70274     -275.07723     -2323.1505     -1931.1554    
   1330500   303.71076      2182.0228     -2324.005      -1931.9663    
   1331000   294.5094       2115.9567     -2303.2351     -1923.5502    
   1331500   301.73538      1491.6331     -2280.3741     -1891.1724    
   1332000   313.44214      1124.9159     -2305.9734     -1900.3582    
   1332500   285.72226      498.92472     -2306.1801     -1936.7428    
   1333000   319.09309      517.78235     -2301.2543     -1888.3701    
   1333500   296.08914      1767.7848     -2291.9082     -1910.2526    
   1334000   314.40627      193.99461     -2327.6329     -1922.1298    
   1334500   291.89773      507.66374     -2322.5397     -1945.6248    
   1335000   294.39707      877.6313      -2352.6624     -1972.3391    
   1335500   299.16373      930.22554     -2295.6093     -1908.8959    
   1336000   317.60716      640.09306     -2329.8692     -1919.6454    
   1336500   305.40022      192.98162     -2333.351      -1937.7881    
   1337000   303.71641      805.51866     -2338.7757     -1947.4253    
   1337500   303.44199      1556.2657     -2290.8502     -1898.5988    
   1338000   298.47935      423.30269     -2322.0885     -1936.4798    
   1338500   294.88965      989.10677     -2339.4655     -1958.5957    
   1339000   310.86869     -195.87188     -2330.6042     -1928.5132    
   1339500   303.60252      2987.1351     -2310.5625     -1919.531     
   1340000   305.54549      1115.8412     -2300.5252     -1906.4407    
   1340500   289.17376      1951.9786     -2333.3908     -1959.1305    
   1341000   313.19503      1395.0761     -2348.7751     -1943.2807    
   1341500   295.10446      658.75228     -2300.1723     -1921.1369    
   1342000   317.60694      1078.939      -2316.1364     -1907.4725    
   1342500   282.33637      333.03483     -2332.449      -1968.9968    
   1343000   289.2468       1556.1434     -2307.7119     -1935.8935    
   1343500   312.19566      925.04639     -2322.1422     -1918.105     
   1344000   290.23127      666.00045     -2348.9477     -1973.3797    
   1344500   295.60464      1193.2798     -2325.3009     -1943.8456    
   1345000   299.42948      1294.2943     -2308.7194     -1921.9005    
   1345500   289.11159      206.0573      -2317.5244     -1942.9557    
   1346000   296.34739      343.25338     -2303.4544     -1921.7567    
   1346500   318.06035      735.17367     -2306.3914     -1896.4272    
   1347000   312.23979      1074.2377     -2341.9223     -1939.7129    
   1347500   294.72457      1918.3111     -2305.1324     -1925.2139    
   1348000   320.40395      479.50034     -2273.4009     -1859.6157    
   1348500   321.2047      -469.11768     -2320.0663     -1906.7517    
   1349000   293.70455      1520.3974     -2312.5535     -1934.7736    
   1349500   300.60626      609.2343      -2337.012      -1950.5382    
   1350000   305.26109      723.80088     -2339.2195     -1946.6759    
   1350500   315.38091      1621.0542     -2300.1896     -1894.156     
   1351000   311.72493      463.36656     -2312.5002     -1909.4488    
   1351500   303.37879     -748.44808     -2312.9132     -1921.8252    
   1352000   279.32428      1278.7676     -2311.2961     -1949.4681    
   1352500   283.72111     -787.57339     -2332.7726     -1965.7615    
   1353000   294.52094     -335.64706     -2301.9533     -1920.8533    
   1353500   290.60541      170.90202     -2317.995      -1942.161     
   1354000   294.41421      1611.0201     -2338.2971     -1957.0076    
   1354500   301.30386      535.28245     -2325.8303     -1937.1941    
   1355000   302.53363      1284.7144     -2294.9678     -1903.2157    
   1355500   303.47661      3025.2916     -2284.2398     -1893.4089    
   1356000   298.42684      337.86817     -2309.8926     -1926.2042    
   1356500   304.06067      177.11807     -2312.5744     -1920.442     
   1357000   306.89516      1277.8833     -2283.4758     -1889.2342    
   1357500   300.12358     -488.06465     -2334.4431     -1948.5749    
   1358000   310.45495      617.83091     -2309.2756     -1908.694     
   1358500   312.12362      2433.664      -2312.8738     -1909.0689    
   1359000   302.77581      759.99266     -2339.8793     -1950.0011    
   1359500   290.37356      1818.4332     -2288.8773     -1915.1528    
   1360000   321.35709      1508.0812     -2303.1965     -1887.4531    
   1360500   290.33651      1793.9795     -2325.6312     -1951.9345    
   1361000   291.55836      779.0638      -2294.2123     -1919.4599    
   1361500   288.59012      1939.736      -2265.6229     -1894.1222    
   1362000   283.38866      2129.1083     -2300.7531     -1936.2095    
   1362500   307.27627     -417.30978     -2352.5789     -1956.149     
   1363000   316.11559      309.43802     -2326.3032     -1917.9791    
   1363500   287.03773      2121.3943     -2298.402      -1929.7408    
   1364000   297.21027      2589.7699     -2336.9872     -1954.4635    
   1364500   327.83096      1230.3295     -2321.5011     -1900.4872    
   1365000   298.63503      541.77461     -2308.5902     -1924.5736    
   1365500   275.65682      2342.072      -2338.1533     -1982.7168    
   1366000   287.52036      653.32971     -2321.9438     -1952.523     
   1366500   298.45968      667.69965     -2317.6331     -1933.9492    
   1367000   312.38738      1411.0839     -2302.7408     -1901.094     
   1367500   301.34089      127.46833     -2290.1183     -1900.3876    
   1368000   315.36959      1328.0881     -2363.5045     -1957.0866    
   1368500   307.6477       629.72019     -2323.0142     -1925.9202    
   1369000   303.059       -1023.9958     -2302.0086     -1909.5481    
   1369500   295.28486      88.550234     -2297.9126     -1917.2494    
   1370000   289.05955     -943.69032     -2348.1657     -1974.7419    
   1370500   306.3762       724.18745     -2337.4015     -1942.3813    
   1371000   290.29451      723.84633     -2300.7793     -1925.7502    
   1371500   316.61772      199.05584     -2284.2544     -1874.2296    
   1372000   325.17725      1011.4555     -2297.9399     -1878.2441    
   1372500   298.23997      1137.3073     -2313.6583     -1928.8052    
   1373000   308.47409      547.92981     -2340.6375     -1941.6149    
   1373500   321.8835       1289.5748     -2308.4342     -1891.7179    
   1374000   281.3923       777.85245     -2296.8296     -1933.7025    
   1374500   313.31246      1575.6072     -2346.4547     -1942.4277    
   1375000   298.16548      699.26946     -2316.7323     -1931.9592    
   1375500   316.07197      1012.3609     -2300.9844     -1892.3056    
   1376000   282.94992      460.2076      -2300.7406     -1934.1551    
   1376500   297.04097      1117.3941     -2314.0742     -1930.7111    
   1377000   294.40319      1954.4845     -2255.5429     -1876.8123    
   1377500   303.37402      1597.8726     -2288.609      -1897.6129    
   1378000   311.02163      2550.2804     -2332.7815     -1930.007     
   1378500   300.51198      895.03471     -2340.3933     -1951.7399    
   1379000   299.14605      784.22521     -2331.3778     -1944.7559    
   1379500   308.01675      328.96614     -2304.5064     -1907.3985    
   1380000   291.04817      492.05621     -2280.6055     -1905.8873    
   1380500   299.65204      1673.3745     -2303.0039     -1917.0414    
   1381000   298.97299      277.3047      -2341.3522     -1955.9832    
   1381500   306.69532     -918.73127     -2341.16       -1944.8139    
   1382000   316.13353      578.6054      -2312.8535     -1904.2947    
   1382500   295.72229      782.30178     -2336.3595     -1953.5085    
   1383000   306.49385     -368.97491     -2318.8613     -1923.837     
   1383500   295.79892     -501.75696     -2313.8778     -1932.7168    
   1384000   289.29191      642.08141     -2304.4457     -1929.8649    
   1384500   304.58188      1285.3568     -2287.9169     -1893.4861    
   1385000   288.73156      1258.2153     -2315.8657     -1944.4004    
   1385500   308.67824      1343.6538     -2319.3291     -1922.3934    
   1386000   312.14411      1649.0197     -2266.9313     -1864.2055    
   1386500   285.86304      1397.4412     -2277.9827     -1908.2017    
   1387000   293.39812      317.49661     -2300.4273     -1922.853     
   1387500   307.63639      1567.771      -2279.7048     -1882.6221    
   1388000   296.26675      1446.9439     -2298.1147     -1915.6456    
   1388500   288.79346      1130.974      -2311.3866     -1938.7711    
   1389000   322.45853      2390.0515     -2336.6629     -1920.7365    
   1389500   312.07466      1633.8679     -2289.9137     -1888.5107    
   1390000   308.14879     -608.2493      -2310.4433     -1912.767     
   1390500   270.33522      1036.7827     -2310.0418     -1960.71      
   1391000   301.32552      237.9173      -2305.2326     -1916.3688    
   1391500   293.77228     -145.74253     -2299.7843     -1920.7086    
   1392000   297.94277      2077.5225     -2304.0352     -1919.2019    
   1392500   295.27078      208.51644     -2306.1312     -1926.4805    
   1393000   281.11577      591.52195     -2283.7071     -1922.4033    
   1393500   303.41078     -1081.7602     -2269.0734     -1877.5304    
   1394000   305.23332      93.184789     -2317.9942     -1923.633     
   1394500   300.91925      370.36527     -2333.998      -1945.2199    
   1395000   303.36359      469.37725     -2314.848      -1923.0481    
   1395500   303.35527      1161.6796     -2290.4161     -1897.3803    
   1396000   305.94692      1159.1247     -2344.5158     -1949.7385    
   1396500   305.94837     -249.49262     -2343.6087     -1949.063     
   1397000   322.54257      344.38204     -2306.6599     -1890.9663    
   1397500   319.02095      582.91353     -2329.2772     -1917.7595    
   1398000   297.75022      619.30674     -2337.3941     -1952.6215    
   1398500   285.77658     -1155.9113     -2335.56       -1966.3497    
   1399000   315.02948     -414.9556      -2322.4288     -1915.6864    
   1399500   288.45852      2543.4761     -2293.3154     -1922.2045    
   1400000   293.42236     -520.52954     -2345.9338     -1967.9674    
   1400500   308.144        1791.8242     -2309.4063     -1911.867     
   1401000   297.15618      758.29531     -2305.5402     -1923.5249    
   1401500   286.26195      1468.0398     -2334.7674     -1966.8676    
   1402000   297.96713      1641.3916     -2306.7237     -1922.3038    
   1402500   284.14258      2884.6456     -2291.2558     -1924.9935    
   1403000   288.5869       800.73932     -2337.3569     -1964.894     
   1403500   292.78344      679.52217     -2315.2618     -1937.3829    
   1404000   293.76185      2100.6055     -2291.3732     -1914.2897    
   1404500   296.68983      1132.0362     -2329.7746     -1949.011     
   1405000   305.13468      1876.1766     -2302.3145     -1908.3551    
   1405500   302.51215      108.47886     -2303.6731     -1912.4389    
   1406000   307.48741      2156.0887     -2342.1602     -1945.9865    
   1406500   295.82314      1662.6432     -2312.689      -1931.5389    
   1407000   320.23977     -267.85372     -2311.6063     -1898.1291    
   1407500   290.83135      2471.7432     -2333.9643     -1957.302     
   1408000   298.86582      1368.199      -2321.5458     -1935.4941    
   1408500   321.72057      1585.3173     -2313.7153     -1898.0761    
   1409000   316.07602      468.5791      -2355.4601     -1947.7109    
   1409500   280.05758      567.62376     -2299.9986     -1939.0871    
   1410000   311.07754      1032.3045     -2305.8643     -1904.4294    
   1410500   284.82493      227.80341     -2302.5673     -1933.9217    
   1411000   306.56616      489.60214     -2323.9043     -1928.4506    
   1411500   315.50566      1359.8403     -2285.179      -1877.9862    
   1412000   305.69397      2726.227      -2304.9961     -1910.1675    
   1412500   301.45836     -338.37762     -2329.0738     -1938.8823    
   1413000   278.06806      637.79186     -2320.7924     -1960.5553    
   1413500   309.16713     -422.19438     -2322.9753     -1923.8092    
   1414000   311.81101      509.74612     -2313.4717     -1910.6089    
   1414500   286.34518      1769.4873     -2326.2843     -1955.7218    
   1415000   278.70134     -397.37167     -2367.597      -2006.7066    
   1415500   293.50946      1886.5148     -2329.6653     -1951.9772    
   1416000   305.17364      380.016       -2311.5547     -1916.8726    
   1416500   315.57061      2531.6089     -2305.8043     -1897.9137    
   1417000   303.86978      1324.5064     -2330.8868     -1938.0009    
   1417500   293.85409     -387.6465      -2310.3722     -1929.9174    
   1418000   308.62213      1403.2917     -2299.4828     -1901.2666    
   1418500   298.63091      1912.8737     -2326.3811     -1939.699     
   1419000   287.13585      2140.8969     -2313.161      -1942.4642    
   1419500   321.42449      911.24409     -2302.8353     -1886.9725    
   1420000   305.26147      1505.8584     -2320.2574     -1927.3883    
   1420500   296.46027      1827.864      -2335.0159     -1952.1446    
   1421000   304.07507      619.23459     -2276.214      -1884.3047    
   1421500   286.46583      1289.1574     -2273.4552     -1904.7068    
   1422000   299.05291      1359.2704     -2320.6899     -1934.9611    
   1422500   297.08857     -341.15523     -2347.8332     -1964.7109    
   1423000   307.11674     -200.4484      -2321.1292     -1923.6486    
   1423500   311.16995      1140.6973     -2316.7543     -1914.5604    
   1424000   280.29977      1375.6819     -2327.033      -1965.2541    
   1424500   305.61597      1383.6994     -2342.4234     -1946.7083    
   1425000   306.30843      1962.641      -2319.1238     -1924.5347    
   1425500   302.46472     -360.35352     -2321.0546     -1932.7815    
   1426000   294.40675     -653.24733     -2349.6201     -1970.1634    
   1426500   298.12403     -1017.7543     -2315.3244     -1930.0129    
   1427000   303.68475      826.00996     -2294.8052     -1903.3128    
   1427500   298.22176     -294.35629     -2289.1504     -1904.1674    
   1428000   289.80108     -901.72616     -2318.6536     -1944.6466    
   1428500   304.74         2155.5179     -2290.1086     -1896.4484    
   1429000   304.22311      214.40133     -2317.3109     -1923.321     
   1429500   288.19256      1025.876      -2328.4307     -1957.7974    
   1430000   306.50318     -38.179449     -2293.3806     -1897.2649    
   1430500   296.75448      1861.4082     -2303.2927     -1920.2314    
   1431000   297.85543      1015.5089     -2325.945      -1940.1088    
   1431500   314.11632      611.93322     -2305.7211     -1900.1492    
   1432000   320.4447       1433.4162     -2324.2224     -1910.8361    
   1432500   283.50566      2113.5956     -2306.9096     -1941.6495    
   1433000   305.66587      1708.7526     -2292.3709     -1897.8319    
   1433500   301.51364      679.96976     -2312.9468     -1922.4319    
   1434000   293.67413      1576.1695     -2299.4302     -1920.5142    
   1434500   306.63096      413.82988     -2277.7705     -1881.6767    
   1435000   304.75547      1127.0905     -2301.4579     -1908.8644    
   1435500   318.45066      424.16383     -2338.9042     -1926.584     
   1436000   302.54343      1773.0004     -2342.5897     -1952.3536    
   1436500   288.09937      572.90011     -2336.1341     -1964.2238    
   1437000   306.9393       630.17341     -2325.3353     -1928.8735    
   1437500   296.27038      344.14062     -2303.4752     -1920.8458    
   1438000   315.99131      1743.9998     -2281.2389     -1872.1691    
   1438500   292.99756      597.93894     -2306.8615     -1927.8945    
   1439000   291.80656      686.38868     -2319.1641     -1942.744     
   1439500   289.06229      152.47956     -2354.6341     -1981.8316    
   1440000   289.11876      39.667171     -2332.8308     -1958.8873    
   1440500   310.19261      838.01135     -2314.3796     -1912.6618    
   1441000   286.87405     -1227.6943     -2267.9217     -1897.0202    
   1441500   294.56849      2662.9698     -2322.8628     -1942.7286    
   1442000   304.15497      493.40714     -2336.8115     -1944.4513    
   1442500   298.0969       732.42548     -2293.9156     -1909.3931    
   1443000   292.32988      643.82987     -2329.2954     -1952.0122    
   1443500   297.48073      1024.9872     -2345.2986     -1961.5875    
   1444000   302.98304      2313.8907     -2308.3407     -1916.8724    
   1444500   300.75408      81.717808     -2316.5437     -1927.0696    
   1445000   311.30349      746.48497     -2352.7169     -1950.7597    
   1445500   305.18638      1877.0719     -2333.6162     -1939.7281    
   1446000   285.90445      1587.8199     -2283.198      -1912.8641    
   1446500   281.08142      1026.49       -2315.1003     -1952.6275    
   1447000   291.91302      1536.6426     -2337.2853     -1960.6197    
   1447500   291.0204       2358.8749     -2287.0196     -1911.3851    
   1448000   296.43944      847.56032     -2304.63       -1923.8245    
   1448500   296.28418      709.89615     -2341.9478     -1959.2367    
   1449000   290.59185      1621.3778     -2321.8471     -1947.2331    
   1449500   318.12372      1628.4861     -2315.2014     -1904.9357    
   1450000   317.20453      963.53287     -2359.0136     -1948.6961    
   1450500   287.77876      562.43474     -2311.3733     -1940.2316    
   1451000   298.0118       3259.6443     -2288.4536     -1903.9267    
   1451500   287.77801      56.212613     -2299.7655     -1928.2488    
   1452000   291.5391       1785.0798     -2343.5025     -1967.6532    
   1452500   302.45361      2280.4774     -2305.3296     -1914.8041    
   1453000   299.53262      1319.7982     -2314.4997     -1927.6811    
   1453500   278.59053      1885.9685     -2303.7374     -1944.5421    
   1454000   319.73546     -197.52822     -2307.4291     -1895.023     
   1454500   308.08578      838.53187     -2327.8037     -1929.2271    
   1455000   305.31785      1807.1119     -2324.7658     -1930.4347    
   1455500   298.17488     -1162.7163     -2364.4719     -1979.4932    
   1456000   306.47888      1086.8451     -2371.8053     -1976.5516    
   1456500   305.29951      2023.4102     -2331.4915     -1936.961     
   1457000   299.73006      1496.3526     -2324.6919     -1939.3685    
   1457500   298.94463     -220.24781     -2313.0386     -1930.0662    
   1458000   301.37878      1239.51       -2274.5581     -1886.6361    
   1458500   299.39846      1984.6563     -2308.2042     -1923.3378    
   1459000   296.54212      115.33637     -2331.2811     -1949.3154    
   1459500   311.1429       1060.7014     -2300.4149     -1899.006     
   1460000   297.63665      1953.2667     -2310.073      -1926.9627    
   1460500   286.88872      1425.7301     -2303.7061     -1932.1469    
   1461000   316.59427      2564.9694     -2284.2516     -1875.1865    
   1461500   303.75342      1599.3979     -2313.2121     -1920.6041    
   1462000   302.34087     -139.9111      -2334.5653     -1945.3548    
   1462500   317.48389      271.87864     -2311.9946     -1903.3689    
   1463000   303.19155     -77.460357     -2300.8064     -1908.9211    
   1463500   312.94141      1944.9641     -2346.1505     -1942.2631    
   1464000   300.92178      1645.7864     -2328.0623     -1941.4349    
   1464500   279.40001      243.76565     -2283.1872     -1923.7805    
   1465000   322.69389      1313.4051     -2315.5606     -1899.8751    
   1465500   293.58086      397.34936     -2314.0516     -1936.9263    
   1466000   284.86174      131.2556      -2314.0514     -1947.4058    
   1466500   329.05828      444.19145     -2320.8605     -1897.3391    
   1467000   295.65982      714.35696     -2320.0483     -1939.0203    
   1467500   293.09174      854.79945     -2318.1378     -1940.4428    
   1468000   303.90988      315.31051     -2317.6631     -1925.6507    
   1468500   320.32767      1673.8226     -2288.2288     -1874.9048    
   1469000   292.45783      1069.4677     -2285.318      -1908.4445    
   1469500   296.24643     -44.966358     -2323.2168     -1942.6353    
   1470000   299.25253      205.55709     -2293.8714     -1908.2634    
   1470500   308.51825      3332.362      -2278.6017     -1881.631     
   1471000   298.68233      1606.314      -2305.8276     -1918.8676    
   1471500   299.74656      1309.6006     -2301.7704     -1914.5       
   1472000   323.54632      120.85847     -2287.423      -1869.8661    
   1472500   296.50813      294.15509     -2311.3452     -1927.1738    
   1473000   292.17204      386.36614     -2309.0663     -1932.145     
   1473500   306.07407      693.05846     -2279.9624     -1884.8708    
   1474000   306.22981      655.41964     -2300.1674     -1904.5694    
   1474500   309.03175      985.50413     -2332.5051     -1932.9693    
   1475000   289.67982      1037.2606     -2309.1689     -1935.4559    
   1475500   318.31148      806.66076     -2292.484      -1881.7608    
   1476000   311.04557      1317.6602     -2336.9528     -1934.9917    
   1476500   291.08668      1279.0313     -2303.4479     -1928.0831    
   1477000   308.61418      1704.9526     -2284.2692     -1885.7672    
   1477500   309.09402      2445.2657     -2302.9121     -1902.8482    
   1478000   285.8753       725.39575     -2300.3805     -1931.1506    
   1478500   298.71484      210.27642     -2362.399      -1976.9506    
   1479000   305.26784      578.46201     -2344.5691     -1950.5938    
   1479500   297.44937      1647.1216     -2313.4897     -1928.5657    
   1480000   290.3371       1429.9582     -2330.1261     -1954.1169    
   1480500   283.41741      1381.0092     -2327.7434     -1961.9377    
   1481000   292.92695      2116.4487     -2298.2392     -1919.1338    
   1481500   301.39225      1361.1938     -2301.6788     -1912.2588    
   1482000   281.36425      1264.0627     -2307.8208     -1943.4196    
   1482500   294.6079       864.08545     -2351.064      -1972.7302    
   1483000   313.13152      509.67158     -2319.1299     -1915.5036    
   1483500   289.26853      354.64924     -2305.1508     -1933.7175    
   1484000   297.95895      886.69279     -2355.2188     -1971.1088    
   1484500   301.75191      1643.4451     -2299.7607     -1911.1216    
   1485000   316.76672      1283.0233     -2316.4715     -1908.2631    
   1485500   300.733       -813.09313     -2349.1657     -1959.6827    
   1486000   287.81153      708.60279     -2315.0042     -1944.2978    
   1486500   291.65988      1872.2889     -2287.9493     -1912.8299    
   1487000   300.67063      1371.2077     -2335.2698     -1947.9474    
   1487500   300.87222      2282.2584     -2342.2451     -1953.744     
   1488000   292.77656      1610.1066     -2295.8906     -1918.1616    
   1488500   293.32153      1808.801      -2298.0281     -1919.6462    
   1489000   285.86975      1205.9404     -2303.6316     -1934.293     
   1489500   278.73755      975.58826     -2316.27       -1956.5036    
   1490000   310.15751      1429.7445     -2304.1284     -1903.9263    
   1490500   308.06806     -370.76108     -2317.4258     -1920.2403    
   1491000   310.33682      1657.9805     -2340.6037     -1940.4321    
   1491500   304.81403      235.75997     -2335.0043     -1940.2886    
   1492000   324.45315      2225.4176     -2300.2932     -1880.1896    
   1492500   309.12826      574.51928     -2308.5096     -1910.8108    
   1493000   293.02912      1279.2926     -2319.2751     -1941.0691    
   1493500   292.26751      409.59658     -2307.7775     -1931.2784    
   1494000   317.69398      734.74214     -2336.4216     -1926.0682    
   1494500   288.41595      739.19378     -2334.7222     -1962.1999    
   1495000   285.98055      126.12949     -2362.5686     -1992.7305    
   1495500   293.43355      944.24531     -2311.8685     -1933.6827    
   1496000   303.44528      1998.4712     -2297.6689     -1906.4026    
   1496500   286.62073     -335.14962     -2333.0609     -1963.2449    
   1497000   285.72812      223.52739     -2306.4898     -1936.3712    
   1497500   292.12547      1182.5233     -2289.1901     -1910.8709    
   1498000   295.15344      1742.3932     -2301.2519     -1919.9099    
   1498500   292.67202      630.94133     -2326.1088     -1948.3599    
   1499000   278.01969      419.25203     -2337.8851     -1979.5474    
   1499500   315.83398     -603.96168     -2333.2717     -1925.6209    
   1500000   306.27939     -781.55793     -2319.3018     -1923.945     
   1500500   286.22568      404.30772     -2342.7934     -1972.0019    
   1501000   282.51735      1140.418      -2313.7042     -1949.3808    
   1501500   299.54648      2459.731      -2304.3671     -1916.38      
   1502000   291.74678      2510.2378     -2293.3845     -1918.1795    
   1502500   291.00448      4280.9812     -2312.5866     -1938.6988    
   1503000   300.89934      666.66562     -2327.4318     -1939.4962    
   1503500   305.9219      -408.30708     -2283.0755     -1888.6827    
   1504000   303.57903      1656.9982     -2322.0263     -1930.4726    
   1504500   286.23962      633.3371      -2304.6465     -1936.9553    
   1505000   297.94719      1117.5492     -2282.2725     -1898.2085    
   1505500   320.59483      1471.498      -2269.1103     -1854.8383    
   1506000   305.39403      923.45484     -2329.9797     -1935.4907    
   1506500   297.23039      779.40581     -2342.3203     -1959.3752    
   1507000   305.96958      1534.7584     -2311.4539     -1915.3121    
   1507500   301.7133       298.68482     -2296.5781     -1907.2368    
   1508000   287.20664      2978.7538     -2333.3226     -1963.1282    
   1508500   304.56453      2509.3648     -2326.5213     -1932.7634    
   1509000   312.01021      1399.1529     -2321.9883     -1918.2906    
   1509500   286.29335      1232.7525     -2304.0458     -1935.2383    
   1510000   298.35175      902.15871     -2301.1493     -1916.4574    
   1510500   289.09621      572.58813     -2279.8615     -1907.6199    
   1511000   282.82246      806.51809     -2319.7639     -1955.5513    
   1511500   318.6931       2525.6409     -2318.2602     -1906.1705    
   1512000   293.20246      2985.7016     -2282.0079     -1902.8274    
   1512500   295.72721      72.270378     -2315.5268     -1933.739     
   1513000   263.10565      721.41873     -2324.6429     -1986.7944    
   1513500   289.43298      1083.8603     -2315.7974     -1942.4846    
   1514000   290.69647      1615.2286     -2287.2744     -1912.5774    
   1514500   301.64192      1394.0707     -2294.5026     -1905.467     
   1515000   308.65645      435.99189     -2355.9781     -1957.6826    
   1515500   291.01009      674.09153     -2292.7733     -1917.5715    
   1516000   303.99813      1827.7666     -2301.2733     -1907.5901    
   1516500   294.32888      1505.1435     -2326.8851     -1946.82      
   1517000   306.17124      1626.1354     -2325.3708     -1929.1375    
   1517500   294.89884      1310.2774     -2267.3818     -1886.7253    
   1518000   294.91528     -79.212132     -2308.2599     -1927.8845    
   1518500   305.29188      882.53922     -2346.2674     -1952.3988    
   1519000   315.81074      2124.9214     -2319.8812     -1912.619     
   1519500   296.70022      1508.3355     -2291.7101     -1909.4371    
   1520000   302.02203      1788.6943     -2331.1166     -1940.2326    
   1520500   292.30072     -131.22936     -2355.2491     -1977.9369    
   1521000   296.75238      1244.3032     -2303.5744     -1920.993     
   1521500   289.49605      1629.4221     -2283.5617     -1911.2006    
   1522000   306.76853      303.17502     -2334.8635     -1938.0853    
   1522500   304.58072      665.03489     -2345.0553     -1951.6638    
   1523000   310.56878      66.583872     -2296.7633     -1897.5997    
   1523500   318.50504      545.06844     -2335.8902     -1924.5235    
   1524000   280.73535      395.51476     -2309.9157     -1947.4326    
   1524500   303.49327      640.62741     -2306.5902     -1914.5544    
   1525000   293.50116      188.61285     -2301.4867     -1922.589     
   1525500   297.51752      2565.7663     -2302.0806     -1917.7599    
   1526000   294.03476      2123.1038     -2317.5343     -1937.6867    
   1526500   291.62101     -744.1838      -2362.9165     -1986.4064    
   1527000   286.44233      2123.9072     -2303.7867     -1933.8481    
   1527500   302.28202      954.84784     -2299.7799     -1908.4794    
   1528000   297.88393      22.644484     -2317.3925     -1933.3133    
   1528500   302.56514     -30.810657     -2336.3427     -1946.4159    
   1529000   310.53612      909.15712     -2300.7521     -1898.691     
   1529500   287.06665      831.18697     -2293.7802     -1922.9682    
   1530000   292.00966      1628.3619     -2337.7994     -1960.8649    
   1530500   277.94432      309.19127     -2354.0975     -1996.5833    
   1531000   302.31721      696.17305     -2329.835      -1939.6062    
   1531500   288.23009      2600.0069     -2281.4335     -1909.3398    
   1532000   303.57479      1133.8502     -2306.5453     -1913.8817    
   1532500   289.25079      569.91227     -2330.0235     -1956.0839    
   1533000   302.89258      480.47451     -2315.359      -1924.4291    
   1533500   296.3908       1225.4148     -2285.0433     -1901.231     
   1534000   286.50505      1716.2054     -2321.4222     -1952.0073    
   1534500   300.29454      860.11444     -2329.3083     -1941.1124    
   1535000   312.08507      619.23463     -2316.226      -1912.4242    
   1535500   308.45932      2045.5342     -2287.6032     -1888.2468    
   1536000   305.99022     -37.246392     -2319.5892     -1924.6087    
   1536500   303.18194      831.68029     -2326.1908     -1933.3819    
   1537000   318.08924      1049.26       -2288.5338     -1876.7138    
   1537500   296.42144      334.52082     -2279.7972     -1896.1945    
   1538000   281.55315      1829.5004     -2306.7883     -1943.8972    
   1538500   315.29516      2007.5735     -2310.3278     -1903.4231    
   1539000   326.41562      988.97786     -2318.7001     -1897.6328    
   1539500   281.90369      393.1294      -2316.1139     -1952.3369    
   1540000   284.54618      279.65149     -2288.0205     -1921.2665    
   1540500   320.82427      1172.0822     -2312.4162     -1898.7947    
   1541000   294.29081      861.02516     -2311.4908     -1933.2307    
   1541500   299.50966     -1054.988      -2317.7132     -1932.8255    
   1542000   297.93376     -57.317876     -2288.7582     -1904.3155    
   1542500   304.91841      1472.9497     -2269.7947     -1876.1841    
   1543000   295.86938      1356.114      -2310.5709     -1928.9801    
   1543500   306.11224     -278.89903     -2301.8638     -1906.8714    
   1544000   326.56731      496.5243      -2300.8815     -1879.6527    
   1544500   281.11807      1685.6975     -2283.0199     -1921.869     
   1545000   295.20258      987.01187     -2298.1257     -1916.1693    
   1545500   316.46419      2236.9677     -2276.2643     -1866.3869    
   1546000   316.04775      434.38147     -2308.9947     -1901.0218    
   1546500   305.65048      1026.6223     -2308.2166     -1912.9712    
   1547000   300.55104      405.24551     -2358.4438     -1970.8252    
   1547500   295.56381      321.40258     -2336.7519     -1955.4229    
   1548000   289.50778      540.54239     -2303.1739     -1929.7566    
   1548500   298.85123      641.71666     -2289.4502     -1903.3044    
   1549000   321.81225      979.98891     -2287.8184     -1872.4102    
   1549500   299.40672      726.43462     -2302.1092     -1915.9491    
   1550000   278.89524     -71.891676     -2311.0626     -1950.8389    
   1550500   284.01408      592.84841     -2362.8915     -1994.856     
   1551000   313.00654     -35.981719     -2355.7742     -1951.475     
   1551500   305.4659       487.15955     -2309.909      -1915.6499    
   1552000   306.5207       1692.2713     -2311.9637     -1916.1779    
   1552500   271.13558      932.70087     -2312.129      -1961.7376    
   1553000   315.84009      229.95786     -2321.107      -1912.0398    
   1553500   318.34972      1025.9472     -2312.7485     -1901.157     
   1554000   290.7634      -208.56433     -2310.8102     -1934.5021    
   1554500   303.39263      1548.0301     -2281.0561     -1889.3333    
   1555000   305.79454      784.08547     -2304.6131     -1909.0329    
   1555500   323.54335      1386.7053     -2341.8091     -1924.1562    
   1556000   294.60049      1581.0716     -2357.0248     -1976.6046    
   1556500   305.68309      481.02476     -2325.2232     -1930.6403    
   1557000   293.0397       2301.768      -2301.4031     -1922.7947    
   1557500   306.46315      297.08769     -2316.9739     -1922.7558    
   1558000   295.80491      1506.5687     -2306.3989     -1924.4952    
   1558500   279.54604      996.30229     -2302.8946     -1941.8042    
   1559000   294.81166      145.19677     -2321.2723     -1939.3457    
   1559500   300.36947      1365.1485     -2289.1184     -1901.4622    
   1560000   305.24117      1739.553      -2346.494      -1952.5386    
   1560500   297.60588      20.653867     -2317.62       -1933.9078    
   1561000   313.67009      490.69509     -2290.7183     -1888.0302    
   1561500   312.95079      283.33518     -2339.5961     -1935.4085    
   1562000   303.02831     -431.98188     -2346.5782     -1954.0385    
   1562500   310.73574      1840.3364     -2303.838      -1902.2502    
   1563000   282.40008      532.462       -2307.8021     -1943.6631    
   1563500   312.38189      1992.5504     -2342.7494     -1939.8886    
   1564000   309.12266      376.16134     -2311.5844     -1911.9574    
   1564500   297.63501      1942.7486     -2250.1536     -1864.6485    
   1565000   308.41492      1652.8686     -2316.0169     -1918.0269    
   1565500   293.33679      2145.8002     -2321.2748     -1942.8224    
   1566000   308.07232      2380.2147     -2302.4314     -1904.5882    
   1566500   288.1313      -148.97428     -2302.691      -1930.9143    
   1567000   287.90149     -68.450083     -2302.6191     -1930.7129    
   1567500   323.2645       307.64394     -2305.2119     -1887.7012    
   1568000   321.86089      3080.6461     -2275.6307     -1859.6885    
   1568500   303.03805      1204.5352     -2319.5843     -1927.9369    
   1569000   283.34441      1330.333      -2324.6928     -1957.43      
   1569500   300.94066      1225.6936     -2297.1598     -1907.3029    
   1570000   291.96385      132.01896     -2297.793      -1920.5501    
   1570500   304.94003      355.55479     -2343.1424     -1948.4775    
   1571000   326.45537     -35.920482     -2318.7733     -1897.3594    
   1571500   290.45402      1314.8296     -2302.8126     -1927.7429    
   1572000   286.75434      107.22294     -2326.5919     -1957.5641    
   1572500   305.957        398.41955     -2304.0606     -1909.8551    
   1573000   294.65446      1165.7603     -2321.5539     -1941.2514    
   1573500   302.14858      1121.7344     -2337.841      -1948.0534    
   1574000   310.05823      1959.9932     -2306.7206     -1905.8048    
   1574500   297.34597     -21.2198       -2341.8567     -1958.7468    
   1575000   291.11509      2374.8054     -2329.6377     -1954.6876    
   1575500   306.43399     -295.16591     -2317.3992     -1923.9007    
   1576000   290.47681      355.88288     -2292.3603     -1916.5722    
   1576500   300.44408     -1106.7401     -2319.7702     -1931.7011    
   1577000   291.60976      781.12978     -2339.8128     -1963.4264    
   1577500   290.43905      1928.7376     -2338.292      -1963.5516    
   1578000   303.758        3327.4353     -2301.197      -1908.2394    
   1578500   291.63996     -482.03566     -2300.8836     -1924.5112    
   1579000   290.20935      816.49399     -2334.1894     -1960.0409    
   1579500   302.61206      1687.6038     -2327.5533     -1935.58      
   1580000   307.89807      161.20192     -2330.0825     -1933.1149    
   1580500   328.54021      941.36084     -2298.2877     -1874.4238    
   1581000   306.52258      501.30226     -2318.2375     -1921.3223    
   1581500   299.20557      611.02253     -2323.6015     -1936.458     
   1582000   306.48198     -781.0621      -2276.2471     -1880.1807    
   1582500   303.96142      894.81182     -2295.7026     -1903.1327    
   1583000   317.35725      728.53948     -2344.3231     -1933.2878    
   1583500   295.4204       1062.2093     -2345.9543     -1963.1694    
   1584000   286.40302      680.04372     -2341.2231     -1971.6081    
   1584500   303.47702      2607.7062     -2313.9292     -1920.9306    
   1585000   298.34751     -144.22007     -2313.3695     -1928.1763    
   1585500   303.17326      145.83758     -2333.0562     -1941.1969    
   1586000   319.57137     -193.11045     -2327.2711     -1913.4216    
   1586500   298.68007     -202.78921     -2295.0429     -1909.8724    
   1587000   291.06179      355.07069     -2317.7875     -1942.1565    
   1587500   296.83517      1047.0266     -2257.6563     -1874.4875    
   1588000   297.58556      768.49389     -2306.4268     -1922.1243    
   1588500   303.91659      120.02576     -2335.0138     -1943.0921    
   1589000   311.34417      1256.4502     -2305.2242     -1904.675     
   1589500   284.25152     -297.03035     -2301.347      -1933.2723    
   1590000   296.28037      340.93299     -2319.5092     -1936.9052    
   1590500   308.24179     -587.43749     -2303.3528     -1905.3206    
   1591000   328.77399      708.3455      -2267.4197     -1843.0862    
   1591500   303.44479     -724.38078     -2287.448      -1895.6004    
   1592000   291.29216      1111.6739     -2313.2454     -1936.8941    
   1592500   286.78439      1678.6476     -2314.7602     -1943.3152    
   1593000   290.7233       1144.4361     -2257.5877     -1882.2682    
   1593500   312.08673      1144.9031     -2325.8377     -1922.9745    
   1594000   290.65214      835.20548     -2306.3772     -1931.5888    
   1594500   330.44639      852.67055     -2311.8652     -1884.0491    
   1595000   313.87312      439.81021     -2288.4492     -1884.0284    
   1595500   283.63947      158.28789     -2301.5956     -1936.5613    
   1596000   304.85487      667.52774     -2312.7044     -1919.8766    
   1596500   304.64357      141.10332     -2282.1777     -1890.2658    
   1597000   292.68768      1022.2626     -2319.4535     -1940.6006    
   1597500   297.01746      284.08138     -2339.2357     -1955.7745    
   1598000   301.11436      1665.042      -2286.7906     -1899.6335    
   1598500   287.43544      1279.4695     -2287.4781     -1915.496     
   1599000   275.83874      93.822801     -2320.7186     -1964.6318    
   1599500   300.30888      1362.246      -2295.0881     -1906.849     
   1600000   300.81725      117.07106     -2324.2575     -1935.5478    
   1600500   296.43572      1169.6003     -2327.7887     -1944.4234    
   1601000   320.63964      954.40868     -2306.0453     -1892.5692    
   1601500   282.01574      503.9125      -2293.5817     -1930.3023    
   1602000   298.10809      902.47391     -2323.8589     -1941.3409    
   1602500   281.74449      1727.3411     -2275.8385     -1912.4687    
   1603000   313.45486      1510.0552     -2284.3963     -1880.3511    
   1603500   298.78603      582.55643     -2327.0451     -1941.731     
   1604000   301.40412      822.26285     -2301.0899     -1910.7401    
   1604500   307.59274      22.249769     -2291.1458     -1894.275     
   1605000   296.00441      742.29589     -2332.8869     -1950.2342    
   1605500   308.29558      377.91428     -2311.1124     -1914.4771    
   1606000   303.05636      1877.9753     -2285.0427     -1894.2087    
   1606500   293.4579       740.52445     -2336.6788     -1958.861     
   1607000   297.23156      1143.657      -2335.2711     -1950.3803    
   1607500   292.82818      1726.7046     -2283.7146     -1907.0828    
   1608000   300.20288     -661.43461     -2300.0121     -1912.9803    
   1608500   307.83778      884.08736     -2346.8648     -1950.0079    
   1609000   302.69943      615.59131     -2304.3049     -1913.7562    
   1609500   321.3477       463.05364     -2298.2732     -1883.3665    
   1610000   306.87862      110.06345     -2324.1746     -1927.7776    
   1610500   298.32818      1025.3308     -2338.6894     -1953.6718    
   1611000   321.95099      801.00254     -2322.9595     -1907.3372    
   1611500   292.47669      2756.7784     -2291.4108     -1914.3348    
   1612000   294.55792      73.564321     -2336.0534     -1956.461     
   1612500   289.82004     -744.76738     -2356.9662     -1983.2123    
   1613000   296.61889      530.83129     -2303.6388     -1922.2452    
   1613500   270.65238      1147.2868     -2265.7698     -1917.046     
   1614000   293.10813      229.93768     -2332.452      -1954.6426    
   1614500   282.31644      955.2411      -2290.452      -1924.5812    
   1615000   307.27685      1106.5391     -2305.4561     -1907.3992    
   1615500   316.89226      502.33788     -2326.1007     -1915.8261    
   1616000   320.24625      990.58485     -2296.7132     -1882.0233    
   1616500   294.31402      1601.0065     -2308.6487     -1928.9061    
   1617000   297.46475      770.98674     -2289.9921     -1905.9861    
   1617500   328.10574      584.94576     -2291.8729     -1867.9755    
   1618000   285.64946      493.35201     -2307.0278     -1936.9143    
   1618500   298.90049      1140.672      -2317.2016     -1931.1792    
   1619000   309.02687      1972.6537     -2288.0468     -1889.103     
   1619500   284.72488      2345.1211     -2311.6659     -1944.5639    
   1620000   304.13737     -161.10824     -2333.7804     -1939.6705    
   1620500   302.21425     -301.44244     -2330.401      -1940.4275    
   1621000   292.19009     -45.791366     -2339.2448     -1962.0835    
   1621500   299.51202      1975.4481     -2304.7247     -1918.1234    
   1622000   306.15541      1049.5075     -2307.9461     -1913.2543    
   1622500   292.54081      1526.9035     -2337.6016     -1960.5865    
   1623000   289.71418      1777.5964     -2303.1082     -1930.5453    
   1623500   302.21084     -1048.1533     -2310.1501     -1919.8699    
   1624000   307.12148      1585.0954     -2319.0747     -1921.4173    
   1624500   279.67245      1618.2564     -2326.9671     -1965.6992    
   1625000   300.41553      670.18685     -2303.6782     -1915.8056    
   1625500   300.21263      1439.983      -2310.2355     -1922.9523    
   1626000   287.89471      1291.4015     -2342.7893     -1969.7929    
   1626500   304.64061     -867.03469     -2322.2244     -1927.5984    
   1627000   300.46185     -83.241531     -2308.7534     -1920.4762    
   1627500   288.34519      547.19905     -2328.1257     -1955.1841    
   1628000   288.11471      1009.0625     -2355.6177     -1982.3024    
   1628500   305.99796      833.12933     -2325.5037     -1929.1743    
   1629000   322.27144      298.50182     -2309.4123     -1894.9174    
   1629500   298.35439      1362.2527     -2321.3443     -1936.953     
   1630000   286.06942      1461.2157     -2308.0518     -1938.847     
   1630500   290.16887      1694.2857     -2273.7341     -1898.1953    
   1631000   299.59543      2491.9296     -2299.9435     -1913.5527    
   1631500   300.23408      1900.0446     -2306.1791     -1918.4031    
   1632000   269.99331      329.00564     -2307.3204     -1957.7371    
   1632500   311.79655      1866.428      -2308.0178     -1906.2063    
   1633000   304.94931     -281.12819     -2323.5041     -1930.2293    
   1633500   283.33707     -545.30458     -2308.0164     -1942.4688    
   1634000   317.60674      1807.5757     -2282.9077     -1873.2694    
   1634500   320.08211      686.67807     -2324.9225     -1913.7663    
   1635000   303.03988      279.45125     -2321.2798     -1929.1199    
   1635500   322.25258      3228.2498     -2310.0356     -1893.7126    
   1636000   287.4743       636.97136     -2312.2595     -1941.8923    
   1636500   300.93254      278.9077      -2310.1451     -1922.1833    
   1637000   319.15367     -426.74729     -2292.4112     -1879.9251    
   1637500   302.68843      2870.7434     -2312.5858     -1921.5537    
   1638000   289.10149      153.35118     -2315.101      -1941.7703    
   1638500   309.35402      226.65839     -2304.384      -1903.828     
   1639000   308.02561      2220.8035     -2303.8829     -1905.8719    
   1639500   283.07243      2117.9057     -2321.6682     -1955.9137    
   1640000   298.279       -154.22782     -2329.3583     -1942.8075    
   1640500   305.1773       1216.426      -2315.3394     -1921.3747    
   1641000   300.06628     -142.42992     -2307.7035     -1920.2837    
   1641500   309.06581     -154.1108      -2279.2456     -1879.0168    
   1642000   298.31971      1001.3138     -2323.7974     -1938.903     
   1642500   303.83839      218.50045     -2310.0839     -1917.9494    
   1643000   304.08641      831.08629     -2300.6941     -1908.7248    
   1643500   297.40171     -437.09816     -2343.2252     -1959.8058    
   1644000   303.67054     -109.19665     -2306.8992     -1914.3814    
   1644500   313.74808      1454.7307     -2313.5856     -1910.0433    
   1645000   279.97025      2172.2824     -2298.5445     -1936.862     
   1645500   307.73407      365.24328     -2328.1594     -1931.9626    
   1646000   310.10582      423.75887     -2327.0074     -1925.1816    
   1646500   311.21598      14.099866     -2299.5979     -1896.5721    
   1647000   305.34426      200.11149     -2336.1815     -1941.2511    
   1647500   293.07787      1059.9009     -2292.4412     -1916.2484    
   1648000   315.90204      1573.829      -2310.5941     -1903.6432    
   1648500   294.54304      1165.0885     -2326.4331     -1946.749     
   1649000   303.22697      844.36968     -2318.1366     -1926.1834    
   1649500   308.58014     -109.3412      -2297.1855     -1899.6377    
   1650000   298.64207      1314.3309     -2320.9683     -1936.7241    
   1650500   270.12348      2261.464      -2303.7952     -1955.0109    
   1651000   302.35533      1722.1323     -2297.9676     -1907.5604    
   1651500   294.6621       198.74506     -2320.1762     -1939.6227    
   1652000   287.02915      533.93106     -2311.3206     -1941.4706    
   1652500   315.815        698.2374      -2306.0077     -1898.8483    
   1653000   305.87999      507.7736      -2328.7766     -1936.3549    
   1653500   328.21365      505.70719     -2302.5115     -1880.4476    
   1654000   313.30736      2727.1688     -2316.773      -1912.8845    
   1654500   281.59509      1747.5617     -2302.9791     -1938.7804    
   1655000   296.85126      1047.7571     -2292.2805     -1909.2884    
   1655500   315.29739      751.18373     -2306.8877     -1900.4047    
   1656000   299.16484     -1123.4905     -2328.9976     -1943.5906    
   1656500   298.89021      1450.2588     -2312.2531     -1926.5556    
   1657000   321.80613      533.63625     -2293.3704     -1878.4049    
   1657500   299.67092      292.0675      -2300.5912     -1913.7201    
   1658000   295.84111      846.69363     -2303.7878     -1924.1601    
   1658500   279.33731      1446.9074     -2351.4423     -1990.6591    
   1659000   307.85986     -778.0685      -2361.7259     -1964.5793    
   1659500   302.84777      96.216144     -2312.2397     -1920.0532    
   1660000   293.64789      751.6459      -2309.9428     -1929.9333    
   1660500   289.36823      614.19488     -2342.0596     -1967.333     
   1661000   289.13894     -209.00852     -2307.8695     -1934.7762    
   1661500   295.628        1672.711      -2296.4807     -1913.5427    
   1662000   297.71905      538.41237     -2332.4843     -1947.1801    
   1662500   296.37149      1604.8066     -2347.1578     -1964.5954    
   1663000   305.98952      813.85896     -2308.6907     -1913.5845    
   1663500   290.90924      1520.3712     -2305.5863     -1930.3611    
   1664000   293.64577      794.83849     -2351.1456     -1972.6712    
   1664500   305.68325      3093.8886     -2308.1737     -1913.6846    
   1665000   295.95837      1913.6466     -2322.0995     -1940.2065    
   1665500   305.94835      2499.6253     -2284.7161     -1889.96      
   1666000   290.2115       768.06987     -2289.4664     -1914.6908    
   1666500   298.71167      1198.9433     -2329.0211     -1943.4029    
   1667000   291.24206      2241.6176     -2295.7938     -1921.4135    
   1667500   308.97847      3347.5492     -2307.2732     -1910.694     
   1668000   281.79278      1566.9298     -2324.9749     -1962.7411    
   1668500   310.19337      885.08827     -2321.4765     -1923.269     
   1669000   297.59118      446.36094     -2299.025      -1916.6197    
   1669500   299.04906      2450.528      -2325.51       -1940.5919    
   1670000   287.129        530.50515     -2354.7033     -1985.5914    
   1670500   306.25663      762.60555     -2323.3791     -1928.0167    
   1671000   305.44128      145.68253     -2303.6197     -1910.3838    
   1671500   276.90786      43.070657     -2317.4438     -1961.5799    
   1672000   314.00602      1982.5709     -2338.0633     -1932.3255    
   1672500   312.18267      721.24264     -2334.9988     -1933.2401    
   1673000   315.97643      1930.2849     -2338.5975     -1931.0609    
   1673500   292.23458      675.13959     -2287.0525     -1908.8659    
   1674000   301.15616      2118.3363     -2283.0661     -1894.3211    
   1674500   314.23105      622.65923     -2354.6101     -1949.2036    
   1675000   293.40612      145.11526     -2301.7158     -1921.6481    
   1675500   309.19276      2249.1677     -2319.2399     -1922.1283    
   1676000   292.52323      3112.6213     -2342.6558     -1966.1802    
   1676500   299.92961      1802.6956     -2327.9304     -1940.7991    
   1677000   315.38875      525.29838     -2328.9113     -1920.4583    
   1677500   304.79584      1442.5275     -2283.1758     -1889.5941    
   1678000   310.83607      1429.2438     -2313.3405     -1912.0854    
   1678500   295.85386      1872.7736     -2331.6934     -1949.808     
   1679000   315.23686      905.92636     -2322.4037     -1915.0355    
   1679500   311.16423      927.22931     -2318.9167     -1917.1973    
   1680000   284.81688      1062.5387     -2304.9104     -1937.6377    
   1680500   279.81091      598.80554     -2323.9848     -1963.2133    
   1681000   307.97438      971.44741     -2309.8891     -1912.6081    
   1681500   303.34386      2184.688      -2314.0929     -1923.2778    
   1682000   288.59037      398.26058     -2323.1983     -1952.7879    
   1682500   282.70975     -406.60453     -2302.7959     -1938.2344    
   1683000   315.89992      780.48984     -2306.4972     -1898.7527    
   1683500   300.62471      324.96164     -2334.26       -1945.1031    
   1684000   294.4781       970.1235      -2315.5047     -1935.6185    
   1684500   306.68205      736.49932     -2303.1552     -1905.9749    
   1685000   319.86922      582.60268     -2276.4981     -1863.121     
   1685500   313.17044      581.34841     -2327.8986     -1924.0582    
   1686000   298.21557      1155.4209     -2321.7719     -1935.6325    
   1686500   314.74709      768.80079     -2292.1006     -1886.1436    
   1687000   314.82502      1099.81       -2315.5188     -1909.4201    
   1687500   321.13227      536.19365     -2348.8374     -1934.4357    
   1688000   323.73144      1244.9784     -2314.0134     -1896.4265    
   1688500   278.55581      1432.6481     -2294.6875     -1935.3929    
   1689000   302.93305      1059.3045     -2322.1941     -1931.5904    
   1689500   301.44669      2062.4643     -2310.2289     -1921.1867    
   1690000   323.30958      616.59004     -2314.4021     -1895.7429    
   1690500   279.7261       1527.6366     -2309.0821     -1948.4781    
   1691000   306.54854     -990.13953     -2314.3099     -1918.3249    
   1691500   294.55241     -474.67234     -2291.8695     -1912.1505    
   1692000   308.711        2250.7482     -2325.0397     -1928.1666    
   1692500   297.57777     -140.94161     -2332.5523     -1948.3135    
   1693000   304.23979      2119.3619     -2319.6536     -1925.6934    
   1693500   301.73314      1932.9798     -2288.8897     -1900.0018    
   1694000   286.13268      1970.0286     -2322.9276     -1954.3751    
   1694500   313.50468      1297.2987     -2337.9539     -1933.8128    
   1695000   313.2841       1204.6805     -2307.2299     -1903.2644    
   1695500   303.87153      1954.3177     -2288.0622     -1896.4376    
   1696000   299.3359       398.24657     -2328.1665     -1942.3969    
   1696500   307.15663      1460.741      -2301.0634     -1903.3148    
   1697000   294.39842      586.84086     -2298.9832     -1918.275     
   1697500   290.49693     -279.3568      -2301.9268     -1927.0857    
   1698000   317.26415      1761.1561     -2301.5069     -1891.4922    
   1698500   320.92001     -473.80517     -2339.586      -1924.4004    
   1699000   297.18591      2288.1094     -2328.5553     -1945.0412    
   1699500   283.86011      2233.436      -2299.9578     -1933.8894    
   1700000   308.56427      1828.6447     -2290.3182     -1891.017     
   1700500   295.00638     -740.67834     -2312.5716     -1931.9114    
   1701000   281.19354      260.10462     -2315.119      -1950.887     
   1701500   306.49509      2662.6043     -2306.0828     -1910.4518    
   1702000   288.12518      278.97333     -2327.6155     -1955.3416    
   1702500   291.69512      2247.5215     -2315.3118     -1939.0745    
   1703000   308.34334      2192.0381     -2316.966      -1919.0083    
   1703500   285.78876      2745.84       -2342.7714     -1973.3403    
   1704000   303.98719      823.9549      -2328.7246     -1936.1881    
   1704500   310.24006      1428.5798     -2329.1827     -1927.6307    
   1705000   308.92492      846.39249     -2308.5052     -1909.4035    
   1705500   321.58205      1175.7609     -2297.5474     -1882.3872    
   1706000   291.04894      874.79644     -2317.0388     -1941.3916    
   1706500   299.35733      1567.7685     -2329.5743     -1942.1785    
   1707000   312.2646       1642.521      -2288.2434     -1885.5456    
   1707500   282.82171      1541.7725     -2281.4803     -1916.2377    
   1708000   306.71258      1254.205      -2320.9833     -1925.0461    
   1708500   302.83634      219.04186     -2355.3557     -1963.3027    
   1709000   310.40702      1227.7002     -2326.3636     -1925.5273    
   1709500   313.76476     -158.15169     -2318.1785     -1913.2414    
   1710000   279.6933       586.21202     -2318.149      -1956.8467    
   1710500   291.82482      844.39998     -2316.1811     -1940.8632    
   1711000   298.30827      1067.7534     -2298.1458     -1913.389     
   1711500   290.66435      2288.3435     -2308.9395     -1932.7335    
   1712000   293.24207      1621.443      -2326.039      -1949.5755    
   1712500   291.10999      1499.4379     -2275.0288     -1899.6296    
   1713000   315.90459      675.55062     -2322.1618     -1916.6112    
   1713500   290.53441      1540.1666     -2316.8336     -1942.7367    
   1714000   323.45039      1895.3887     -2306.119      -1888.6266    
   1714500   307.98766      1358.5782     -2305.9046     -1907.915     
   1715000   307.96239     -274.47169     -2333.0889     -1935.2789    
   1715500   298.2274       1579.9282     -2318.1985     -1933.2053    
   1716000   309.05852      541.01418     -2304.652      -1905.7465    
   1716500   313.35396      160.87486     -2307.9895     -1903.8995    
   1717000   291.64119      1295.1197     -2325.4441     -1949.4617    
   1717500   327.91471      481.97366     -2343.9681     -1920.2332    
   1718000   314.48747      762.99818     -2256.9277     -1851.4713    
   1718500   295.26984      1478.8699     -2287.8367     -1907.3676    
   1719000   305.69446      382.94986     -2320.4352     -1926.0092    
   1719500   294.06933      12.234575     -2351.2546     -1970.8842    
   1720000   294.32185      1010.0219     -2327.9551     -1948.8554    
   1720500   279.48101      1568.1158     -2275.7036     -1915.2537    
   1721000   321.45023      1572.2882     -2322.5        -1908.1265    
   1721500   294.74523      762.31256     -2311.6602     -1929.9856    
   1722000   301.79229      313.66522     -2348.8698     -1958.279     
   1722500   306.88941      884.29554     -2294.1591     -1896.5648    
   1723000   285.14678      1585.8245     -2279.5933     -1911.6402    
   1723500   291.65945      372.70743     -2328.6562     -1951.5511    
   1724000   291.07281      0.12142027    -2356.4278     -1979.3356    
   1724500   314.89347      1101.9023     -2321.8254     -1914.9997    
   1725000   312.38677      1565.5789     -2325.5946     -1922.3078    
   1725500   296.06425      363.49281     -2339.535      -1957.3897    
   1726000   296.83361      1884.8954     -2293.2382     -1909.1469    
   1726500   284.20622      1181.0822     -2290.8566     -1924.0222    
   1727000   300.42869      1083.0248     -2332.0174     -1943.8513    
   1727500   299.1934       897.32905     -2325.0994     -1937.5246    
   1728000   315.75902      1962.794      -2278.8491     -1871.7878    
   1728500   305.69213      1922.8652     -2315.1493     -1920.9926    
   1729000   301.33194     -610.59438     -2316.165      -1928.9431    
   1729500   328.65625      1597.167      -2293.5166     -1870.1871    
   1730000   309.0944       203.23932     -2318.284      -1919.6811    
   1730500   298.03012      1956.6882     -2323.1157     -1938.4529    
   1731000   291.578        1593.3316     -2323.567      -1947.5699    
   1731500   310.78506      2024.6976     -2293.8744     -1893.4507    
   1732000   295.7493       594.49396     -2292.1933     -1912.5025    
   1732500   277.9674       1324.7324     -2292.9546     -1936.7938    
   1733000   301.34605      547.40563     -2296.2528     -1909.0386    
   1733500   317.83869      2124.6587     -2276.5041     -1867.1795    
   1734000   301.75262      2508.5638     -2312.3351     -1922.0409    
   1734500   299.88824      855.775       -2325.1307     -1938.0682    
   1735000   299.16641      1439.8638     -2323.3121     -1937.3231    
   1735500   318.37941      981.48965     -2301.524      -1892.9892    
   1736000   297.12119      426.98541     -2295.0123     -1911.7877    
   1736500   293.71376      491.85669     -2333.2431     -1954.4158    
   1737000   311.53369      1709.1152     -2307.5637     -1905.1739    
   1737500   298.60874      1352.337      -2306.7882     -1921.2105    
   1738000   297.91838      551.69945     -2356.6518     -1972.3493    
   1738500   303.86508     -290.60697     -2373.8966     -1982.1232    
   1739000   294.70065      1645.6189     -2306.5407     -1926.2732    
   1739500   300.02769      600.61755     -2311.6766     -1924.7506    
   1740000   292.36215      278.99028     -2338.1967     -1962.269     
   1740500   282.77864      2052.4234     -2293.4077     -1929.568     
   1741000   305.51692      1169.5673     -2295.5665     -1901.4296    
   1741500   293.95534      759.77099     -2329.8118     -1950.417     
   1742000   276.7323       3142.266      -2295.7325     -1938.9759    
   1742500   303.96466     -1168.8674     -2292.0551     -1899.8723    
   1743000   296.42702      1375.0155     -2302.6698     -1918.7409    
   1743500   279.39839      1219.6504     -2340.6131     -1980.7308    
   1744000   287.97768      202.12965     -2317.5182     -1945.5175    
   1744500   300.69309      1085.6249     -2319.6099     -1930.3612    
   1745000   269.11349      909.99108     -2305.4134     -1958.8993    
   1745500   299.23176      1004.905      -2313.6402     -1926.5668    
   1746000   303.02536      631.37892     -2308.5822     -1917.5223    
   1746500   276.78746      1541.8128     -2305.7076     -1948.4441    
   1747000   306.70005      2113.2796     -2320.8098     -1925.151     
   1747500   306.22023      2233.8645     -2279.2717     -1883.9041    
   1748000   294.10163      2106.2274     -2273.0447     -1893.3614    
   1748500   289.09315      2574.3982     -2309.8786     -1936.7676    
   1749000   298.82527     -494.41438     -2309.7879     -1922.721     
   1749500   296.44014      77.759744     -2258.8603     -1876.7165    
   1750000   289.69292     -446.9201      -2310.1985     -1936.9997    
   1750500   314.66189      2324.1727     -2320.0805     -1912.87      
   1751000   307.58246      2411.6038     -2337.1394     -1940.494     
   1751500   295.12186     -223.56583     -2336.9475     -1956.5831    
   1752000   315.32711     -198.3081      -2340.5109     -1932.3813    
   1752500   325.24293      1747.9269     -2353.6309     -1934.4222    
   1753000   296.46467      119.49757     -2370.7555     -1986.9488    
   1753500   296.05984      631.65541     -2319.3587     -1937.2536    
   1754000   300.0174       63.797313     -2300.2921     -1913.1666    
   1754500   282.92915      1272.4185     -2326.0035     -1963.0995    
   1755000   284.95907     -431.67277     -2312.1554     -1945.3636    
   1755500   303.96583      1593.6171     -2311.8552     -1921.9657    
   1756000   303.52811      2478.5151     -2342.367      -1951.5152    
   1756500   284.4873       1286.4464     -2337.9845     -1972.1911    
   1757000   300.10189      888.86969     -2311.878      -1924.9194    
   1757500   305.87348      741.28471     -2324.6551     -1931.5287    
   1758000   292.94816      911.38035     -2348.0495     -1971.7294    
   1758500   311.47019      635.45927     -2310.1712     -1909.6627    
   1759000   305.52622      409.56433     -2284.5509     -1891.2016    
   1759500   310.16839      326.60883     -2319.5762     -1920.0983    
   1760000   294.71166      1182.8292     -2340.2641     -1960.3014    
   1760500   314.37078      629.18624     -2315.7791     -1910.8209    
   1761000   307.19742      172.92387     -2302.3456     -1904.7527    
   1761500   303.88652      1048.6061     -2325.9007     -1934.027     
   1762000   291.36851     -214.33855     -2348.0889     -1973.1562    
   1762500   300.45872      2045.0939     -2324.1423     -1936.3549    
   1763000   323.03614      1723.791      -2330.2965     -1913.4628    
   1763500   287.04351      1047.2623     -2286.6689     -1915.0518    
   1764000   295.60841      642.23302     -2306.928      -1926.1129    
   1764500   294.72851     -410.88584     -2352.2851     -1971.462     
   1765000   301.25741      1203.4441     -2318.8155     -1928.6981    
   1765500   318.98329      384.41612     -2328.2142     -1918.4507    
   1766000   312.30062      600.95118     -2307.8871     -1905.2768    
   1766500   295.93047      1865.0083     -2307.1938     -1925.3836    
   1767000   296.16472      1789.4043     -2335.8578     -1953.538     
   1767500   309.05837      1166.3337     -2310.9084     -1911.368     
   1768000   311.28763      1828.0057     -2320.6073     -1918.7732    
   1768500   285.90297      398.79383     -2318.6719     -1949.7748    
   1769000   293.26703      855.89558     -2308.8114     -1930.5852    
   1769500   301.00296      1668.1205     -2338.4461     -1948.7792    
   1770000   293.5136       440.87231     -2353.2704     -1973.068     
   1770500   303.20631      1888.8977     -2312.6181     -1920.0862    
   1771000   291.56486     -179.73123     -2290.5111     -1913.886     
   1771500   276.88749      137.08601     -2325.0744     -1967.9323    
   1772000   293.40349     -285.76663     -2310.1192     -1931.6778    
   1772500   293.61394      620.98973     -2298.155      -1918.3897    
   1773000   307.56983      2450.0026     -2289.238      -1892.3603    
   1773500   312.59375      138.2055      -2304.1355     -1899.849     
   1774000   303.10475      606.05205     -2325.5497     -1934.6038    
   1774500   297.24532      2404.6738     -2303.1068     -1919.1742    
   1775000   314.7603       1252.3667     -2284.4391     -1876.8148    
   1775500   309.98699      1207.7975     -2319.3028     -1919.247     
   1776000   297.91131      1227.2572     -2334.9872     -1948.9544    
   1776500   273.11844      1269.747      -2349.1744     -1996.8139    
   1777000   298.30709     -668.13563     -2327.8926     -1944.2697    
   1777500   293.27371      1463.0023     -2295.7945     -1915.8847    
   1778000   293.02366      2840.9915     -2326.3462     -1946.9153    
   1778500   286.48905      883.39256     -2344.1816     -1973.1001    
   1779000   311.29729      318.73623     -2313.9967     -1911.6365    
   1779500   305.21052      1518.5887     -2326.8737     -1932.0609    
   1780000   296.84016      1224.6994     -2346.5201     -1963.4685    
   1780500   318.26036      389.23952     -2319.5864     -1908.028     
   1781000   297.16219     -553.36849     -2297.2698     -1913.6127    
   1781500   286.43569      1288.1514     -2318.6814     -1950.5784    
   1782000   326.88029      96.959622     -2311.5335     -1889.3552    
   1782500   309.92109      626.15452     -2316.835      -1916.1473    
   1783000   302.6348      -1176.2713     -2340.6121     -1949.9372    
   1783500   296.13296      438.68157     -2329.1364     -1946.9464    
   1784000   297.0438       870.93561     -2289.7068     -1906.1358    
   1784500   303.99365      1639.6263     -2295.2939     -1902.853     
   1785000   307.35302      1088.7134     -2340.9161     -1944.4673    
   1785500   296.56177      1131.6548     -2315.6949     -1932.1458    
   1786000   322.97395      2051.5111     -2321.8916     -1903.7954    
   1786500   294.72289     -381.49421     -2307.7275     -1927.2816    
   1787000   302.30443      2307.902      -2312.2811     -1922.9098    
   1787500   293.03809     -857.71564     -2328.9064     -1951.1773    
   1788000   292.6778      -612.57607     -2346.2649     -1967.3646    
   1788500   290.62226      785.39789     -2288.5041     -1915.2177    
   1789000   307.5639       1555.4344     -2296.2606     -1900.0938    
   1789500   309.23691      1178.8279     -2322.9641     -1923.9974    
   1790000   288.18649      1396.3161     -2288.7446     -1915.4832    
   1790500   313.08699      813.11339     -2312.1791     -1907.8275    
   1791000   300.04882     -1404.5178     -2322.5852     -1935.3188    
   1791500   297.27656      201.97473     -2314.9739     -1930.7772    
   1792000   297.66352      1505.1128     -2275.8859     -1890.8177    
   1792500   290.61817      443.16266     -2307.3733     -1930.7861    
   1793000   300.08872      118.5712      -2324.1312     -1936.7668    
   1793500   290.77883      1997.7071     -2304.9079     -1928.249     
   1794000   301.53349      873.44632     -2333.8863     -1944.6884    
   1794500   283.90211      120.46759     -2333.0073     -1965.5486    
   1795000   315.35153     -309.43861     -2326.2107     -1917.8054    
   1795500   294.13295     -636.12138     -2303.9084     -1924.2099    
   1796000   293.35931      1031.1718     -2350.9176     -1972.6682    
   1796500   302.43136      747.40878     -2313.9836     -1923.9535    
   1797000   300.12749      883.18783     -2293.8052     -1907.5225    
   1797500   295.11148     -482.22759     -2337.7659     -1956.4998    
   1798000   293.88938      1269.554      -2312.4518     -1932.7727    
   1798500   300.22173     -210.65082     -2304.7316     -1917.5169    
   1799000   312.9473       742.99105     -2328.2427     -1926.0738    
   1799500   290.77489      1760.2815     -2353.8219     -1978.2942    
   1800000   301.77242     -344.40364     -2312.1458     -1922.3967    
   1800500   294.77523      930.72805     -2291.8182     -1911.2758    
   1801000   294.24165      1188.9796     -2341.2356     -1960.7801    
   1801500   296.15825      689.62136     -2319.6077     -1935.9791    
   1802000   296.38519      1538.8799     -2307.7048     -1923.8406    
   1802500   296.71819      389.05647     -2339.8449     -1956.8952    
   1803000   307.02026      429.56913     -2343.2248     -1945.6362    
   1803500   307.2362       1666.8948     -2295.4032     -1898.4021    
   1804000   295.93112     -174.94878     -2319.8098     -1937.7691    
   1804500   294.49967      2028.0561     -2335.0244     -1953.4965    
   1805000   302.49156      875.9244      -2290.234      -1899.5471    
   1805500   275.96713      1284.3576     -2300.1486     -1943.6069    
   1806000   286.11566      394.77433     -2297.8211     -1928.3423    
   1806500   313.82377      845.76086     -2294.4504     -1889.2671    
   1807000   295.39756      1003.4615     -2318.3228     -1935.9479    
   1807500   295.38277      170.51666     -2313.9674     -1931.4614    
   1808000   305.53092      500.46258     -2286.504      -1892.5097    
   1808500   296.31286      148.24145     -2300.5283     -1917.8803    
   1809000   288.2854       121.47887     -2294.3105     -1922.5256    
   1809500   324.00053      428.52788     -2312.0357     -1892.9235    
   1810000   287.02514      1542.4263     -2309.718      -1938.2506    
   1810500   282.25473      593.44152     -2313.7557     -1951.5347    
   1811000   304.15917      1104.5646     -2286.7461     -1894.5627    
   1811500   299.63262      642.97359     -2307.2172     -1920.763     
   1812000   305.35248      2132.1067     -2367.3023     -1972.4782    
   1812500   281.51385      1204.1858     -2353.3641     -1990.785     
   1813000   293.40494      1752.8034     -2322.0311     -1944.3134    
   1813500   304.21993      1759.7659     -2303.859      -1910.2711    
   1814000   312.10949      1745.1342     -2326.6058     -1924.0969    
   1814500   306.52884      1178.1424     -2341.2779     -1944.4696    
   1815000   323.20623     -180.51371     -2313.6702     -1896.2885    
   1815500   305.70735      2053.5234     -2296.7543     -1902.1943    
   1816000   285.17095     -748.06647     -2323.9401     -1956.905     
   1816500   321.92572      726.81566     -2327.3568     -1913.0663    
   1817000   300.65787      1751.6916     -2292.8823     -1904.8857    
   1817500   304.44819      1537.4863     -2346.9416     -1952.8754    
   1818000   283.47936      1623.5764     -2314.6426     -1948.5411    
   1818500   298.2957       4.1758178     -2300.0214     -1914.9938    
   1819000   309.67396      1843.0899     -2312.1871     -1912.7304    
   1819500   302.98171      3635.6586     -2289.4114     -1898.2713    
   1820000   308.01349      1276.3705     -2345.7534     -1946.7143    
   1820500   298.12789      1166.6582     -2334.7502     -1950.0992    
   1821000   301.6825       2640.959      -2271.7594     -1884.1432    
   1821500   296.14999      1609.0521     -2311.0211     -1928.7754    
   1822000   313.45676      984.85649     -2341.5347     -1936.9032    
   1822500   323.37037      1197.913      -2311.894      -1894.3961    
   1823000   309.49231      2287.6135     -2293.3726     -1893.4019    
   1823500   278.78331      1093.2179     -2309.4822     -1948.0784    
   1824000   308.51032      1131.2643     -2312.8651     -1914.4336    
   1824500   324.80755      1217.7086     -2311.3152     -1890.956     
   1825000   292.02462      725.81542     -2293.5162     -1916.3039    
   1825500   308.57849      1544.8129     -2353.8897     -1955.2476    
   1826000   289.80372      367.0373      -2340.3779     -1965.0856    
   1826500   296.66367      2104.4541     -2310.3913     -1926.2211    
   1827000   308.35319     -221.50682     -2322.2726     -1924.1599    
   1827500   275.93569      1302.9465     -2319.9688     -1964.0206    
   1828000   312.22766      844.284       -2323.5069     -1919.4367    
   1828500   276.67285     -859.03587     -2267.9346     -1910.6727    
   1829000   284.01325      221.87176     -2322.4064     -1955.6603    
   1829500   308.37457      536.8846      -2325.3111     -1927.1567    
   1830000   303.69341      1667.524      -2305.8103     -1913.7994    
   1830500   293.41593      495.89516     -2338.4677     -1958.5774    
   1831000   272.45963      1634.0907     -2336.3687     -1984.3531    
   1831500   298.12588      1148.7513     -2334.0151     -1949.3194    
   1832000   302.84717      1167.3492     -2311.4265     -1919.3236    
   1832500   295.83462      523.75511     -2273.6006     -1891.0789    
   1833000   287.6779       2124.1549     -2277.8082     -1907.6456    
   1833500   296.73427      811.36912     -2309.8484     -1926.6414    
   1834000   306.90542      356.66174     -2287.3431     -1891.151     
   1834500   301.26216      357.56758     -2315.9308     -1927.2327    
   1835000   288.64489     -604.70629     -2295.4065     -1923.2259    
   1835500   310.80203      1024.62       -2319.1553     -1918.2911    
   1836000   320.41996      323.4455      -2376.2185     -1962.276     
   1836500   294.35454      841.24835     -2323.2478     -1942.4857    
   1837000   311.03239      2215.0478     -2326.9848     -1926.8264    
   1837500   275.55507      898.98386     -2313.7445     -1957.8619    
   1838000   310.87477      407.28817     -2316.5102     -1915.4851    
   1838500   290.0322       2210.0657     -2294.1886     -1919.4291    
   1839000   291.30028     -897.09784     -2323.9374     -1948.0464    
   1839500   293.21485      2707.4299     -2306.5382     -1928.3336    
   1840000   301.44318      1104.3654     -2303.7719     -1914.2799    
   1840500   298.93365     -368.97838     -2326.5694     -1941.2706    
   1841000   286.02919      905.74837     -2378.7032     -2008.1041    
   1841500   295.77087      263.9175      -2330.6004     -1949.2731    
   1842000   307.0579       1473.7601     -2323.9129     -1926.299     
   1842500   305.6556       719.12954     -2318.4768     -1924.0712    
   1843000   302.60477      2065.2874     -2347.209      -1957.404     
   1843500   313.26531      3757.5511     -2309.9266     -1905.7154    
   1844000   300.4021       425.4888      -2320.4986     -1931.4338    
   1844500   287.26859     -856.54492     -2294.2108     -1923.3522    
   1845000   303.51644      1140.4445     -2320.9769     -1928.3047    
   1845500   287.16039     -993.13605     -2310.3207     -1939.0408    
   1846000   318.85532      2114.2174     -2300.4968     -1889.0922    
   1846500   301.96746      742.72678     -2317.8495     -1929.685     
   1847000   294.34556      3074.0734     -2313.158      -1933.1545    
   1847500   300.18209      1956.0733     -2299.4448     -1912.1195    
   1848000   305.28321      1868.2143     -2260.1082     -1866.1662    
   1848500   312.25905      1252.4187     -2318.933      -1916.557     
   1849000   294.04784      1117.3552     -2311.9806     -1931.3077    
   1849500   297.01772     -840.1896      -2344.7763     -1961.1394    
   1850000   288.45335      2056.8052     -2294.9084     -1922.4013    
   1850500   288.59659      2109.4421     -2274.9793     -1902.6001    
   1851000   299.26295      583.34335     -2351.517      -1964.0698    
   1851500   295.66721      1129.6668     -2326.142      -1945.7535    
   1852000   300.32448      1368.3498     -2290.115      -1901.2956    
   1852500   315.31358      2822.1815     -2253.2092     -1847.7111    
   1853000   306.01517      26.789217     -2305.1614     -1910.1883    
   1853500   301.78642      1195.4107     -2331.2489     -1941.5426    
   1854000   298.79574      1633.2855     -2360.5422     -1974.4926    
   1854500   298.68135     -233.79907     -2340.6805     -1953.6229    
   1855000   311.3294       3130.7544     -2318.9472     -1916.91      
   1855500   296.15701      1743.81       -2316.9636     -1935.152     
   1856000   295.16739      456.89133     -2336.1588     -1954.4434    
   1856500   317.62412      2917.7582     -2317.6466     -1906.5009    
   1857000   306.6681       2184.4372     -2336.1324     -1938.9684    
   1857500   288.59969      1182.3074     -2297.5574     -1924.8752    
   1858000   313.17868      2191.1053     -2321.4025     -1918.5709    
   1858500   298.40419      329.6981      -2334.2408     -1948.7341    
   1859000   304.38411     -1063.4069     -2296.9608     -1902.719     
   1859500   303.81197      1876.0285     -2302.8479     -1909.2622    
   1860000   302.70788      1663.6245     -2329.9682     -1937.8626    
   1860500   304.35657      457.93669     -2317.5        -1924.3664    
   1861000   336.04443      1880.8406     -2318.7702     -1883.7614    
   1861500   292.6615       1947.7266     -2312.5457     -1933.4966    
   1862000   305.0786       1063.0418     -2321.7919     -1929.0651    
   1862500   318.02642      302.22151     -2291.6187     -1880.8496    
   1863000   303.42331      1828.1685     -2327.715      -1935.2336    
   1863500   296.55073     -1271.6112     -2320.8733     -1940.2228    
   1864000   311.5606      -729.1688      -2302.1598     -1899.0285    
   1864500   313.01994      444.30417     -2326.1153     -1921.1742    
   1865000   312.23011      378.58858     -2328.7689     -1925.6165    
   1865500   298.07108      1695.9855     -2287.373      -1904.0481    
   1866000   296.48221      1930.5163     -2316.728      -1934.2207    
   1866500   281.35559      1368.1942     -2316.3633     -1951.863     
   1867000   332.40252      2073.8631     -2315.94       -1887.1014    
   1867500   295.1394      -308.8137      -2307.1098     -1926.0332    
   1868000   315.56291      1147.9015     -2332.0664     -1926.5764    
   1868500   296.83385      688.51419     -2322.7064     -1940.1705    
   1869000   318.29818      352.46478     -2339.7867     -1928.7941    
   1869500   287.37569     -696.63783     -2306.0445     -1935.2541    
   1870000   307.39802      516.3423      -2303.2017     -1906.4333    
   1870500   307.82657      743.5539      -2322.2665     -1923.9712    
   1871000   294.60956      2147.7819     -2324.2341     -1944.3235    
   1871500   291.00796      623.53144     -2293.8753     -1917.4055    
   1872000   286.99731      957.62137     -2312.5857     -1942.8204    
   1872500   292.52683     -941.7044      -2309.4603     -1932.2611    
   1873000   320.5993       873.899       -2324.6941     -1911.819     
   1873500   283.44472     -1522.6624     -2339.5217     -1974.2306    
   1874000   279.08666      881.71698     -2309.3782     -1948.3193    
   1874500   293.46226      1109.7868     -2283.752      -1905.3419    
   1875000   288.83671      644.05939     -2309.717      -1936.7254    
   1875500   283.44153      1135.3628     -2339.528      -1973.4119    
   1876000   288.78751      729.96253     -2302.4207     -1929.4352    
   1876500   310.66675      1030.5631     -2308.4771     -1906.4848    
   1877000   311.9103       912.14919     -2312.2263     -1911.3617    
   1877500   279.34911     -289.13975     -2316.1974     -1956.4113    
   1878000   318.95166      1694.0532     -2317.9721     -1907.93      
   1878500   308.68102      772.6568      -2315.7008     -1918.3847    
   1879000   286.68239     -318.50374     -2305.6643     -1934.6948    
   1879500   293.14478      696.53157     -2339.9634     -1960.9258    
   1880000   269.54725      315.26187     -2322.6441     -1974.4366    
   1880500   305.70434      397.18788     -2316.2341     -1922.8708    
   1881000   298.92298      2142.4131     -2299.6484     -1915.6068    
   1881500   282.6217       19.118736     -2307.3659     -1943.84      
   1882000   279.43923     -628.85861     -2326.4174     -1967.3315    
   1882500   284.68099      1614.9601     -2279.6971     -1913.3463    
   1883000   310.30455      1358.9672     -2333.3093     -1934.8366    
   1883500   296.85313      344.02614     -2340.9205     -1959.7669    
   1884000   296.40182      1399.3738     -2310.6987     -1928.681     
   1884500   279.98142      562.60755     -2277.8614     -1915.914     
   1885000   297.12067      648.02904     -2322.42       -1938.8811    
   1885500   300.06269      460.84218     -2334.2418     -1945.7079    
   1886000   315.63555      170.51003     -2304.6977     -1897.297     
   1886500   298.47161      635.88574     -2306.1773     -1922.8773    
   1887000   280.60633     -84.570998     -2349.6641     -1986.1902    
   1887500   293.65335      1075.9261     -2331.8854     -1951.4084    
   1888000   300.41546     -224.28456     -2316.9859     -1927.8402    
   1888500   300.01347      1494.5117     -2321.3688     -1934.5161    
   1889000   292.47736      329.8888      -2354.3117     -1976.0682    
   1889500   282.43388      1452.4374     -2298.4152     -1932.7169    
   1890000   303.8878       1063.6719     -2315.5807     -1924.2222    
   1890500   304.25865      1993.089      -2324.133      -1930.7543    
   1891000   298.03128      1122.2254     -2264.7551     -1880.4757    
   1891500   289.24755      1044.3482     -2308.7745     -1934.9593    
   1892000   297.28294      1978.4324     -2318.3197     -1933.7934    
   1892500   310.21143      64.337253     -2294.2442     -1894.5083    
   1893000   297.33961      1028.6893     -2301.8196     -1918.0919    
   1893500   290.60314      873.41269     -2324.4078     -1949.5669    
   1894000   290.95729      939.90591     -2318.5123     -1943.8703    
   1894500   293.63693      1107.3112     -2282.212      -1903.2379    
   1895000   299.41722      2382.3336     -2324.7969     -1938.5197    
   1895500   306.99865      868.68493     -2341.1083     -1943.6399    
   1896000   313.24667      1512.2078     -2327.5585     -1923.9658    
   1896500   305.3659       1696.3859     -2314.3652     -1921.6539    
   1897000   284.60919     -885.27407     -2321.998      -1953.282     
   1897500   302.08779      1414.577      -2331.2061     -1939.9339    
   1898000   285.89029      334.34949     -2286.249      -1917.6156    
   1898500   305.86725      1234.5021     -2281.5704     -1886.9951    
   1899000   303.12024      1523.1057     -2302.9725     -1912.1024    
   1899500   281.91105     -536.90196     -2313.6132     -1950.6888    
   1900000   307.87934      727.26532     -2316.5215     -1919.5393    
   1900500   310.2993       2104.1639     -2281.9057     -1880.9045    
   1901000   301.76619      2355.1728     -2304.4818     -1915.7034    
   1901500   308.64191      977.4111      -2335.7093     -1937.4818    
   1902000   314.32702      679.59508     -2326.9908     -1924.451     
   1902500   287.06388     -584.02013     -2296.0545     -1928.7114    
   1903000   293.90898      1751.5387     -2310.6871     -1933.0081    
   1903500   295.93548      494.04152     -2352.475      -1972.3353    
   1904000   297.70546      3049.2384     -2305.6977     -1923.8281    
   1904500   319.54523      1249.5995     -2333.5853     -1922.833     
   1905000   280.67142      3585.5273     -2330.7653     -1970.1457    
   1905500   302.65287      274.81585     -2337.8452     -1947.4852    
   1906000   293.43558     -73.635393     -2297.1409     -1917.5295    
   1906500   322.36105      438.59552     -2301.8882     -1887.1302    
   1907000   316.41704      1904.1105     -2308.5583     -1900.2499    
   1907500   289.65579      1462.1038     -2320.5844     -1947.4154    
   1908000   311.7433       1563.7709     -2305.4182     -1903.3728    
   1908500   292.69918      128.36579     -2313.5497     -1936.3519    
   1909000   293.727        293.50974     -2347.0165     -1970.7028    
   1909500   299.34875      683.18039     -2308.1785     -1921.536     
   1910000   290.64664      1838.0471     -2295.1432     -1920.0325    
   1910500   288.97109      28.191213     -2329.4917     -1956.4402    
   1911000   280.93239      1606.8345     -2324.862      -1962.1089    
   1911500   301.11151      910.33198     -2302.6495     -1914.7457    
   1912000   277.45837      383.52516     -2300.7086     -1942.7866    
   1912500   294.54883     -134.20108     -2339.4791     -1958.9965    
   1913000   305.74627      503.30481     -2307.1359     -1912.6342    
   1913500   305.8373       1408.5754     -2334.5234     -1938.704     
   1914000   278.93119     -312.38152     -2325.2698     -1964.1551    
   1914500   286.00882      1466.3951     -2288.5301     -1919.4112    
   1915000   306.54363      436.50956     -2328.4165     -1934.4611    
   1915500   315.10622      742.72165     -2369.1522     -1962.4507    
   1916000   305.49786      879.95452     -2295.982      -1902.4603    
   1916500   289.44377      660.83679     -2297.2516     -1923.7988    
   1917000   301.99663     -1090.6998     -2336.5945     -1945.5477    
   1917500   300.33516      828.08608     -2305.7132     -1918.4557    
   1918000   318.57697     -1074.7208     -2321.9705     -1910.1503    
   1918500   297.88104      1623.785      -2344.7941     -1960.3007    
   1919000   305.34914      880.47428     -2319.1888     -1925.1387    
   1919500   318.12875      147.23994     -2324.5581     -1913.737     
   1920000   298.78688      941.8884      -2347.1318     -1961.5294    
   1920500   290.36967     -236.00384     -2339.6751     -1965.1365    
   1921000   289.83164      1049.5543     -2301.5544     -1927.7422    
   1921500   308.51575      1126.7994     -2303.6403     -1905.2695    
   1922000   306.26142      936.3651      -2310.0519     -1913.3512    
   1922500   277.56474      162.3057      -2313.0906     -1955.4591    
   1923000   301.21072      548.42933     -2368.1068     -1981.5903    
   1923500   290.38469      1187.6725     -2297.4658     -1922.9189    
   1924000   312.91878      1401.0123     -2339.1771     -1935.6189    
   1924500   290.22064      90.857341     -2326.8583     -1952.7096    
   1925000   298.36626     -250.93013     -2318.6354     -1935.653     
   1925500   308.12139      1240.9136     -2301.1799     -1903.5646    
   1926000   323.1364       1550.325      -2287.9445     -1870.5538    
   1926500   301.58199      1398.7917     -2322.596      -1931.9963    
   1927000   284.84554      837.90774     -2312.6199     -1943.7004    
   1927500   299.81098      569.67355     -2319.2202     -1931.8179    
   1928000   299.59459      1011.6503     -2287.19       -1900.5034    
   1928500   303.88828      1238.2167     -2346.3317     -1955.4546    
   1929000   298.57898     -264.93077     -2327.3639     -1941.2014    
   1929500   306.19999      1335.5339     -2299.5907     -1904.1439    
   1930000   290.12657      1261.578      -2295.213      -1920.5376    
   1930500   309.08865      1822.5541     -2338.0689     -1939.1793    
   1931000   270.84369      254.01922     -2329.2464     -1978.5298    
   1931500   279.42078      2579.1482     -2289.2702     -1928.8802    
   1932000   301.96642      1066.6053     -2298.636      -1909.2283    
   1932500   296.36625      930.12128     -2276.318      -1893.4867    
   1933000   299.76094     -163.36406     -2318.1355     -1931.3294    
   1933500   301.47856     -41.022476     -2326.7309     -1937.8657    
   1934000   296.80987      530.39698     -2316.0777     -1931.6675    
   1934500   308.60172      1002.4617     -2286.0886     -1887.8325    
   1935000   291.93401      331.65643     -2316.1266     -1939.5138    
   1935500   285.84094      2010.737      -2300.6218     -1931.2807    
   1936000   310.94838      781.24892     -2283.434      -1882.0153    
   1936500   293.23682      551.13288     -2291.6408     -1913.6231    
   1937000   309.52655      437.73091     -2336.2309     -1936.6502    
   1937500   292.81499     -320.37192     -2311.396      -1933.5343    
   1938000   296.78299      215.29793     -2283.6259     -1899.9428    
   1938500   292.49517     -250.06087     -2325.0803     -1947.475     
   1939000   311.63925     -660.17879     -2342.5871     -1940.0099    
   1939500   303.31143      3276.5048     -2280.4085     -1887.3917    
   1940000   288.99828      584.80265     -2283.5778     -1910.6391    
   1940500   294.32158      136.69955     -2324.7136     -1944.9513    
   1941000   274.75921      1229.3557     -2353.1446     -1998.486     
   1941500   305.30683      1171.6319     -2341.2982     -1947.0872    
   1942000   307.98786      1847.4344     -2319.5199     -1922.3501    
   1942500   291.35513      217.47934     -2333.1455     -1957.0223    
   1943000   287.98156      1876.4422     -2320.6898     -1948.7788    
   1943500   281.25095      1111.1243     -2277.5433     -1915.8417    
   1944000   268.89589      1373.7047     -2308.5779     -1960.1273    
   1944500   328.89588      1402.4154     -2338.2275     -1912.9148    
   1945000   308.54785      1197.1306     -2309.4724     -1909.9321    
   1945500   297.55901      1295.4645     -2329.1367     -1945.057     
   1946000   320.28588      949.23056     -2298.9695     -1885.6641    
   1946500   295.5498       1410.8341     -2294.1443     -1911.5239    
   1947000   285.81528      1357.0871     -2315.3178     -1946.339     
   1947500   338.77719      969.08345     -2328.2772     -1890.434     
   1948000   306.05203      796.47531     -2311.3264     -1916.6675    
   1948500   305.76773      108.97585     -2340.9782     -1946.5821    
   1949000   309.85043      1920.4582     -2291.3123     -1891.6637    
   1949500   293.486        885.40695     -2303.3746     -1923.2481    
   1950000   282.86946     -75.737986     -2320.5779     -1953.9966    
   1950500   316.87563      1095.8573     -2308.9933     -1900.0565    
   1951000   305.38821      1523.9321     -2294.3844     -1900.9974    
   1951500   304.45605      23.358961     -2342.3368     -1949.7532    
   1952000   303.65418      1292.3134     -2321.4116     -1930.0991    
   1952500   297.19065     -325.91334     -2310.1288     -1927.3032    
   1953000   319.85685      2120.269      -2331.3372     -1918.6388    
   1953500   268.44069      573.20187     -2320.025      -1973.4408    
   1954000   302.1621       1894.1711     -2312.7935     -1922.6764    
   1954500   306.73579      1163.8138     -2310.5783     -1914.672     
   1955000   283.66646      425.73467     -2336.0783     -1968.722     
   1955500   309.57874      238.15095     -2331.983      -1931.5542    
   1956000   299.28451     -545.87506     -2292.6183     -1906.408     
   1956500   330.65663      1851.3228     -2283.2925     -1857.4747    
   1957000   311.84221      1325.9176     -2321.3584     -1919.612     
   1957500   301.1          78.430864     -2320.7923     -1932.5963    
   1958000   313.02901      1024.7817     -2384.0982     -1980.4921    
   1958500   291.01127     -212.33459     -2314.5664     -1938.9801    
   1959000   296.12221      569.16208     -2305.0159     -1923.5146    
   1959500   306.06666      176.1931      -2288.7892     -1895.8346    
   1960000   313.68082      597.48767     -2305.1307     -1901.4862    
   1960500   283.87323      1254.6815     -2317.7325     -1951.4836    
   1961000   300.38203      309.73272     -2299.6414     -1911.7537    
   1961500   298.54185      1243.0373     -2283.9076     -1900.0413    
   1962000   285.87989      1151.3861     -2311.2021     -1942.4325    
   1962500   285.69574      284.51218     -2305.4161     -1935.1577    
   1963000   298.47599      1844.7612     -2303.3123     -1917.9111    
   1963500   290.43141      1568.8804     -2345.1942     -1970.5388    
   1964000   300.77001      1014.732      -2338.952      -1951.4596    
   1964500   294.15471      1203.9626     -2310.7744     -1929.8676    
   1965000   303.4628       1867.2708     -2329.5612     -1937.5098    
   1965500   294.4704      -467.98573     -2323.3038     -1943.6632    
   1966000   291.48241      713.41749     -2311.285      -1933.834     
   1966500   327.00229      1074.4054     -2317.5393     -1895.4457    
   1967000   283.62813      366.82211     -2307.0126     -1940.5907    
   1967500   280.64511      256.93335     -2299.0761     -1937.0283    
   1968000   300.53108      1938.5184     -2305.8961     -1917.0023    
   1968500   298.05561      506.37565     -2329.2095     -1944.0764    
   1969000   290.74849      960.54751     -2325.561      -1948.9321    
   1969500   305.81297      1407.4956     -2312.2087     -1916.0735    
   1970000   303.84348      484.3194      -2327.0356     -1935.1131    
   1970500   285.17852      1477.1659     -2296.2382     -1928.5325    
   1971000   300.61535      1294.1056     -2279.6527     -1891.9337    
   1971500   305.5368       23.587571     -2327.6906     -1934.5311    
   1972000   305.14435      735.38976     -2344.9788     -1950.4142    
   1972500   324.26451     -268.34805     -2316.1425     -1897.5259    
   1973000   301.33698      2620.0547     -2279.0903     -1889.671     
   1973500   297.04948      1629.5309     -2314.2366     -1930.6523    
   1974000   319.17961      1521.9271     -2333.8847     -1923.0426    
   1974500   282.49834      210.58021     -2312.852      -1947.8411    
   1975000   302.52954      1412.5609     -2344.9375     -1953.154     
   1975500   296.78875      151.95715     -2302.402      -1919.1208    
   1976000   294.3849       363.63711     -2298.9242     -1920.5055    
   1976500   293.87422      1858.8047     -2316.9739     -1937.4936    
   1977000   306.02982      425.95087     -2317.1593     -1921.9176    
   1977500   299.19129      424.80344     -2281.7759     -1895.7118    
   1978000   295.96998      325.41796     -2313.816      -1931.2765    
   1978500   294.16921     -885.43525     -2323.7924     -1943.9219    
   1979000   317.63002     -506.63957     -2299.7271     -1888.6681    
   1979500   300.68743      1415.3293     -2305.4638     -1917.6313    
   1980000   292.83757      1146.8861     -2329.7608     -1951.9241    
   1980500   304.95132      239.9045      -2317.452      -1922.662     
   1981000   312.78814      1160.5992     -2301.9864     -1897.6257    
   1981500   297.69556      427.859       -2316.4816     -1932.5144    
   1982000   290.61155     -351.37944     -2337.0456     -1962.2282    
   1982500   292.03366      1255.535      -2285.7503     -1908.2596    
   1983000   310.87914      1822.7564     -2308.8695     -1907.0169    
   1983500   296.52049      709.95445     -2312.2987     -1931.5091    
   1984000   309.79846      1790.9256     -2335.8709     -1936.2708    
   1984500   299.86896      1064.7129     -2313.8845     -1927.1387    
   1985000   318.11136      938.86444     -2320.6073     -1908.7208    
   1985500   285.3515       2311.8748     -2329.1104     -1961.0425    
   1986000   297.93179     -361.13738     -2331.9365     -1947.684     
   1986500   299.21286      1436.3121     -2277.9419     -1891.5239    
   1987000   307.28311      2820.4329     -2311.772      -1915.3752    
   1987500   295.05664     -636.77224     -2326.4634     -1944.3074    
   1988000   300.66478      1654.9009     -2315.9921     -1926.6052    
   1988500   318.15482      776.74866     -2278.2299     -1868.1412    
   1989000   306.74396      1089.4059     -2314.3633     -1919.124     
   1989500   287.79025     -898.27833     -2301.9907     -1931.0261    
   1990000   300.87743      1474.1676     -2281.9977     -1893.975     
   1990500   304.12188      974.77615     -2319.9113     -1927.6618    
   1991000   297.5256       919.73767     -2344.8465     -1961.1925    
   1991500   298.80235      820.60971     -2342.1002     -1956.8232    
   1992000   305.88666      1427.9378     -2298.1671     -1903.528     
   1992500   297.36148      318.5879      -2308.6007     -1925.4322    
   1993000   287.29377      580.97525     -2322.1767     -1950.2672    
   1993500   298.32024      2157.9432     -2310.2666     -1925.4639    
   1994000   293.80004      3055.6061     -2319.9922     -1939.2978    
   1994500   298.30739      2208.0292     -2305.9419     -1920.9952    
   1995000   306.40741      2484.1254     -2293.72       -1898.6746    
   1995500   298.98553      960.62695     -2336.4782     -1949.3511    
   1996000   317.9799       819.20876     -2330.6407     -1919.8418    
   1996500   301.29563      661.68522     -2304.5769     -1915.4752    
   1997000   289.5841       242.71394     -2349.3879     -1975.9369    
   1997500   299.02973      2335.9978     -2331.3002     -1945.1221    
   1998000   310.7001       47.258244     -2317.2722     -1916.1956    
   1998500   310.55397      2081.7489     -2265.767      -1865.6087    
   1999000   302.17308      1260.4979     -2287.4489     -1899.6104    
   1999500   302.93778      532.0792      -2319.9944     -1930.5473    
   2000000   285.66661      589.59356     -2327.2684     -1961.6808    
   2000500   320.10524      2301.5795     -2320.0251     -1908.5921    
   2001000   312.74227      2053.7477     -2309.4196     -1909.1224    
   2001500   307.82064      465.94015     -2271.4864     -1877.3718    
   2002000   309.13029     -64.689079     -2294.5738     -1897.0506    
   2002500   309.36813      817.50593     -2322.385      -1925.0315    
   2003000   289.90884      1036.7508     -2277.2067     -1904.3181    
   2003500   321.22842      479.37649     -2295.577      -1881.1597    
   2004000   291.95886     -49.737667     -2312.5903     -1936.5447    
   2004500   284.72858      1197.3212     -2294.4988     -1925.7851    
   2005000   295.32526      1069.2036     -2315.9999     -1933.8086    
   2005500   280.04471      1474.8924     -2334.778      -1972.6255    
   2006000   301.41885      1150.2726     -2307.2522     -1918.5895    
   2006500   312.73992      1791.3245     -2346.3103     -1943.0731    
   2007000   298.77066      2122.6052     -2335.0963     -1950.0468    
   2007500   278.10165      1376.8463     -2288.1153     -1929.4539    
   2008000   291.70403      1444.5514     -2306.2933     -1929.7184    
   2008500   311.49394      862.9638      -2277.4238     -1876.8536    
   2009000   316.3691       2275.7204     -2298.4795     -1891.3304    
   2009500   291.08897      1472.02       -2305.1368     -1929.6872    
   2010000   288.79669      212.93916     -2319.7706     -1945.5507    
   2010500   307.82531      1475.1634     -2294.7261     -1896.2599    
   2011000   296.91157      1030.9035     -2296.3266     -1914.2773    
   2011500   286.55271      285.67366     -2314.8281     -1943.6724    
   2012000   294.33092      578.94792     -2305.428      -1925.4637    
   2012500   301.25693      926.33838     -2312.5109     -1922.335     
   2013000   269.08201      1207.6393     -2325.8417     -1977.1268    
   2013500   288.35503      624.54354     -2309.9704     -1936.987     
   2014000   294.62599      1986.5622     -2297.3162     -1915.6792    
   2014500   288.92448     -977.00423     -2314.0714     -1939.807     
   2015000   276.10754      1317.8456     -2311.7043     -1956.0089    
   2015500   300.39477      1282.9857     -2305.1127     -1918.0768    
   2016000   291.33315      1195.1124     -2276.0249     -1899.3026    
   2016500   326.12383      1502.9767     -2281.4632     -1861.1458    
   2017000   299.69781     -45.459766     -2304.4075     -1917.9246    
   2017500   291.64367      690.48629     -2327.6332     -1951.4103    
   2018000   298.64331      197.50756     -2332.8169     -1946.8132    
   2018500   295.20389      907.95337     -2285.3359     -1904.715     
   2019000   306.09844      6.0925389     -2334.0079     -1939.7582    
   2019500   294.19028     -1161.2856     -2325.4957     -1947.8885    
   2020000   294.50361      2005.9842     -2296.9719     -1915.5559    
   2020500   282.54386      1087.7414     -2289.847      -1925.441     
   2021000   291.36672     -390.09241     -2337.451      -1961.6694    
   2021500   291.02606     -50.153041     -2341.9692     -1965.9787    
   2022000   289.26609      834.34209     -2296.6257     -1923.6637    
   2022500   299.95901      1604.2778     -2279.4534     -1894.0088    
   2023000   280.80343     -66.688743     -2295.0269     -1932.8223    
   2023500   305.60372     -381.00031     -2342.94       -1947.052     
   2024000   319.60493     -6.5910495     -2309.6624     -1896.3696    
   2024500   295.6629       623.98416     -2273.3786     -1891.9122    
   2025000   284.45884     -362.06332     -2317.9278     -1950.7853    
   2025500   311.84186      1636.4281     -2332.3034     -1928.4088    
   2026000   311.31477     -84.871769     -2294.972      -1893.0353    
   2026500   296.71087      2077.5229     -2295.7813     -1913.0846    
   2027000   293.48955     -104.20327     -2315.7364     -1935.9522    
   2027500   302.47055      468.46483     -2269.6484     -1879.1948    
   2028000   296.59973      1842.8985     -2292.5194     -1909.5853    
   2028500   305.51687      1029.0204     -2332.6067     -1937.291     
   2029000   277.29907      813.18471     -2341.7252     -1982.727     
   2029500   297.79063     -296.54541     -2321.7665     -1938.2075    
   2030000   315.70886      391.19656     -2319.1816     -1911.8585    
   2030500   307.56891     -67.734058     -2337.7031     -1940.0488    
   2031000   287.69843      749.64507     -2324.462      -1953.5877    
   2031500   296.11915      164.75876     -2279.9833     -1898.2257    
   2032000   307.92351      1481.9134     -2303.7004     -1908.0047    
   2032500   287.18735      1163.9791     -2323.9771     -1952.0202    
   2033000   307.05043      1386.8337     -2314.6791     -1918.013     
   2033500   313.00513      1477.2012     -2315.0226     -1909.6679    
   2034000   287.41975      565.8911      -2322.4551     -1950.8445    
   2034500   288.02024     -614.01636     -2306.3659     -1933.1687    
   2035000   295.6982       2512.3768     -2290.7853     -1907.6992    
   2035500   297.94375      684.40047     -2308.3507     -1922.8476    
   2036000   274.50467      997.51828     -2267.2022     -1912.2791    
   2036500   304.44222      2489.0867     -2297.5478     -1903.3211    
   2037000   313.92462      1768.2554     -2286.9165     -1881.2325    
   2037500   299.95969      435.65429     -2317.9543     -1930.7       
   2038000   301.15128     -1506.8258     -2327.8335     -1939.1317    
   2038500   302.67511      98.123149     -2286.1091     -1895.4554    
   2039000   291.17315      636.69625     -2311.7428     -1934.8047    
   2039500   272.66117      1372.4329     -2351.6474     -2000.1429    
   2040000   313.33265      293.96035     -2347.9753     -1942.6791    
   2040500   318.79091     -1104.3771     -2322.7837     -1910.2289    
   2041000   289.58375      1547.0455     -2312.6102     -1938.488     
   2041500   303.1864      -30.942219     -2339.7468     -1947.4638    
   2042000   302.15674      209.44324     -2288.8583     -1898.9982    
   2042500   294.30087      1420.4073     -2328.846      -1948.7515    
   2043000   297.6526      -1116.7062     -2316.0267     -1932.3656    
   2043500   301.33455      1752.9899     -2299.3412     -1910.8096    
   2044000   306.0631       598.12087     -2308.8584     -1914.4632    
   2044500   303.40065      451.37264     -2336.006      -1943.8253    
   2045000   289.59444      1458.5526     -2343.0634     -1969.2568    
   2045500   309.12735      591.65361     -2316.9212     -1917.9247    
   2046000   306.81228      712.32153     -2315.2991     -1919.3652    
   2046500   305.47274     -1294.9609     -2355.3142     -1959.6455    
   2047000   303.48288      774.26031     -2341.6737     -1949.9173    
   2047500   308.74958      901.02773     -2315.2745     -1916.5354    
   2048000   306.66647      1316.3163     -2324.9376     -1928.6715    
   2048500   291.24372      194.98599     -2336.9538     -1959.5352    
   2049000   285.71502      1298.3537     -2308.824      -1940.9075    
   2049500   307.51822      1065.602      -2303.6909     -1905.6588    
   2050000   300.76268      1221.1844     -2325.0605     -1936.8712    
   2050500   297.40488      1705.2951     -2332.7859     -1949.5242    
   2051000   301.66447      1383.1589     -2292.2536     -1903.2182    
   2051500   304.48413      1527.9102     -2316.1839     -1921.8274    
   2052000   295.71009      15.020332     -2362.671      -1980.311     
   2052500   303.85504      1106.689      -2350.2013     -1957.8719    
   2053000   288.10551      1049.5166     -2294.897      -1922.8176    
   2053500   296.33575      949.14513     -2319.5325     -1935.9487    
   2054000   299.71012     -625.9316      -2355.2825     -1968.3972    
   2054500   295.16262      1618.5314     -2308.8189     -1926.8884    
   2055000   283.8123       894.61046     -2294.1073     -1927.6533    
   2055500   279.52573      2509.8912     -2320.5596     -1959.5772    
   2056000   296.39562      1649.7846     -2292.7116     -1908.8418    
   2056500   313.56003      1033.1662     -2334.3104     -1929.4333    
   2057000   295.96213      1618.719      -2363.2205     -1981.0498    
   2057500   301.1695       712.61015     -2330.8627     -1940.7882    
   2058000   303.29341      916.35769     -2311.6771     -1920.4133    
   2058500   302.92016      1326.8857     -2284.1651     -1892.9561    
   2059000   285.57928      1048.9491     -2298.5682     -1929.6513    
   2059500   297.70687      1123.7053     -2330.4661     -1945.821     
   2060000   325.20097      302.63817     -2320.0534     -1900.2532    
   2060500   295.18432      888.73791     -2295.1218     -1912.8325    
   2061000   291.77321      1972.2307     -2317.4564     -1940.6006    
   2061500   279.40897      1275.1055     -2287.1163     -1926.2162    
   2062000   336.64449      54.41861      -2322.7913     -1887.9792    
   2062500   283.50622      1218.5448     -2297.8325     -1931.8924    
   2063000   303.98804     -204.92208     -2301.9806     -1911.2743    
   2063500   295.40761      959.62579     -2286.8557     -1907.488     
   2064000   288.57879      1904.496      -2311.5633     -1938.4223    
   2064500   296.9821       1364.2527     -2292.1774     -1909.2669    
   2065000   318.22897      384.64163     -2277.3091     -1865.0392    
   2065500   283.8309      -1325.6838     -2290.3246     -1923.1641    
   2066000   299.44248      1189.1285     -2313.1667     -1925.5532    
   2066500   293.786       -293.82335     -2309.6826     -1932.266     
   2067000   300.59944      39.465244     -2321.2553     -1933.2481    
   2067500   294.90758      1994.6476     -2284.2604     -1903.2498    
   2068000   286.96681     -164.52126     -2312.7868     -1941.4179    
   2068500   306.5437      -325.13912     -2320.4745     -1923.9486    
   2069000   282.09431      2221.5062     -2329.0949     -1965.816     
   2069500   296.09602      1514.1601     -2339.6974     -1957.2627    
   2070000   292.60104      634.36973     -2308.1377     -1930.34      
   2070500   301.96141      1725.5808     -2285.6612     -1896.4553    
   2071000   316.51577      753.61527     -2271.7007     -1861.8977    
   2071500   279.82049      2207.687      -2293.0244     -1930.5724    
   2072000   303.7351       1109.947      -2337.187      -1944.0938    
   2072500   318.74022      738.47194     -2307.7513     -1897.2634    
   2073000   300.70771      619.0682      -2318.1986     -1929.2554    
   2073500   287.89344      1809.6664     -2326.9951     -1955.5021    
   2074000   312.39412      34.499378     -2305.7622     -1903.1012    
   2074500   309.50176      1373.1481     -2302.0988     -1902.5553    
   2075000   296.38718      2015.0442     -2306.2719     -1923.869     
   2075500   285.13726      258.82094     -2307.9577     -1939.8205    
   2076000   289.24836      30.679743     -2293.371      -1918.7283    
   2076500   299.92451      694.5369      -2255.8077     -1868.8083    
   2077000   319.79298      2104.6822     -2297.9854     -1885.4411    
   2077500   309.00257      997.98651     -2319.6095     -1921.3338    
   2078000   296.12062     -40.435847     -2340.8258     -1958.9188    
   2078500   287.07789      749.34896     -2308.0555     -1937.7616    
   2079000   305.62916      96.386924     -2322.669      -1927.0953    
   2079500   306.83232      2173.0951     -2293.1863     -1897.5408    
   2080000   290.30115      425.08362     -2280.8188     -1906.0645    
   2080500   289.70908      2673.6703     -2307.2387     -1933.4164    
   2081000   284.79393      1213.7808     -2298.7795     -1931.605     
   2081500   293.33721     -31.086242     -2299.1404     -1920.5582    
   2082000   305.06845      1021.3296     -2321.7793     -1927.6223    
   2082500   305.50573     -221.79114     -2309.9955     -1915.3888    
   2083000   300.92563     -11.477958     -2343.7358     -1955.0572    
   2083500   271.89469      1809.8696     -2332.7967     -1981.5629    
   2084000   285.9213       863.54431     -2288.2105     -1920.6595    
   2084500   295.55454     -722.28061     -2315.565      -1932.6762    
   2085000   296.50114      1219.6719     -2352.4684     -1968.4533    
   2085500   295.87493      415.58127     -2327.8466     -1944.6275    
   2086000   311.05278      1417.051      -2311.2367     -1908.4201    
   2086500   297.15779      852.41451     -2301.7011     -1916.9829    
   2087000   296.48509      745.63012     -2348.5267     -1964.6855    
   2087500   304.48263     -124.37472     -2313.2677     -1920.2811    
   2088000   315.33171      331.98499     -2318.0346     -1909.9873    
   2088500   304.27689      778.0345      -2357.8515     -1963.6202    
   2089000   290.89219      95.916133     -2305.9634     -1930.5568    
   2089500   315.59509      810.21145     -2332.1945     -1925.1757    
   2090000   271.59467      763.12199     -2318.6791     -1966.6387    
   2090500   282.7573      -15.993834     -2358.0599     -1993.4482    
   2091000   290.8652       1628.6614     -2309.2845     -1934.2054    
   2091500   298.7832       1971.3106     -2280.7772     -1894.8186    
   2092000   298.77906      553.65622     -2329.9831     -1943.8367    
   2092500   318.68563      1730.0457     -2352.0307     -1941.188     
   2093000   334.74276      1120.1612     -2325.023      -1893.7949    
   2093500   307.53863      1481.0447     -2296.7028     -1900.3215    
   2094000   289.37022      1229.0655     -2315.4538     -1942.6673    
   2094500   300.74648      586.32886     -2305.3872     -1917.9894    
   2095000   305.04411      585.68237     -2296.0426     -1902.8259    
   2095500   305.11693      412.08907     -2324.5298     -1931.2753    
   2096000   293.47547      2637.466      -2305.4568     -1925.3753    
   2096500   314.22651      2916.5934     -2298.0473     -1892.9577    
   2097000   297.29109      849.35848     -2316.6788     -1933.0834    
   2097500   286.8191       989.58072     -2298.4408     -1928.0965    
   2098000   312.41881      6.8741027     -2318.1335     -1915.0122    
   2098500   298.22773      1411.5322     -2346.2881     -1963.8702    
   2099000   294.55177      999.39793     -2313.5051     -1933.9603    
   2099500   328.85131      1483.4115     -2300.551      -1877.3577    
   2100000   319.44369      479.05382     -2297.4609     -1886.5555    
   2100500   304.38225      738.51714     -2308.3911     -1918.0504    
   2101000   278.70686      333.35789     -2294.9493     -1935.3703    
   2101500   316.75098      1992.2973     -2318.2571     -1910.5257    
   2102000   304.1469       191.47422     -2290.0396     -1898.6115    
   2102500   286.93748      1468.6811     -2323.5926     -1955.0472    
   2103000   302.49049      877.03709     -2323.3435     -1933.4935    
   2103500   297.08383      381.04453     -2294.8354     -1911.2427    
   2104000   287.86129      2846.2971     -2314.2554     -1942.5868    
   2104500   303.72529      918.55742     -2296.8217     -1904.4149    
   2105000   284.76118      700.4053      -2265.5439     -1898.6877    
   2105500   314.39449     -145.02313     -2341.772      -1936.4173    
   2106000   290.31036      755.35277     -2315.503      -1941.4886    
   2106500   309.51632      391.35125     -2300.0881     -1900.874     
   2107000   291.88935      1342.9186     -2305.437      -1930.2454    
   2107500   284.21546      680.20571     -2326.0173     -1959.1668    
   2108000   303.0282       1000.2531     -2310.5645     -1919.0153    
   2108500   303.48673     -801.08771     -2325.3244     -1933.1715    
   2109000   282.92179      28.836951     -2344.1823     -1979.3114    
   2109500   296.18942      1028.1459     -2297.2298     -1917.3382    
   2110000   309.45146      1695.9882     -2319.763      -1920.9473    
   2110500   284.9135       943.0479      -2327.1811     -1961.3058    
   2111000   303.73356     -412.79499     -2331.3925     -1939.8223    
   2111500   317.60202      1742.2609     -2328.802      -1919.2096    
   2112000   283.41328     -164.97107     -2295.4992     -1930.4814    
   2112500   305.19652      124.61532     -2341.489      -1947.763     
   2113000   304.65371      906.93832     -2314.5059     -1922.8006    
   2113500   314.98379      1496.9604     -2317.6498     -1910.9219    
   2114000   288.66491     -201.26839     -2291.3857     -1917.8345    
   2114500   321.55062      1018.516      -2286.752      -1871.5669    
   2115000   289.16689      788.70326     -2302.0005     -1928.7329    
   2115500   289.69311      1042.1156     -2315.7242     -1941.3814    
   2116000   306.73751      834.99718     -2298.4032     -1903.0584    
   2116500   300.51987     -61.426856     -2293.9975     -1906.1383    
   2117000   281.47804      1804.8732     -2305.9345     -1942.2986    
   2117500   300.08169     -35.124607     -2309.6556     -1924.5942    
   2118000   307.75672      1094.574      -2302.9039     -1906.2172    
   2118500   281.29386     -185.1983      -2311.8682     -1949.2694    
   2119000   308.37903      72.446935     -2330.5134     -1932.8757    
   2119500   305.18331      1723.4836     -2342.1493     -1948.3298    
   2120000   291.01525     -257.69609     -2366.3854     -1990.0891    
   2120500   301.37088      835.53819     -2325.3877     -1936.7293    
   2121000   306.81247      1055.263      -2313.5082     -1917.866     
   2121500   307.86519      803.09853     -2268.78       -1870.5116    
   2122000   307.82327      1385.1146     -2314.6662     -1917.5787    
   2122500   290.50892     -404.98811     -2309.2185     -1935.0947    
   2123000   305.45531      1772.8011     -2279.4596     -1888.0416    
   2123500   301.5629       1112.6004     -2293.8351     -1905.2454    
   2124000   292.3167      -200.13676     -2304.6805     -1929.7804    
   2124500   292.18473     -85.383628     -2290.7377     -1916.1214    
   2125000   333.05027      335.2762      -2305.9844     -1875.3565    
   2125500   322.96589      2683.0897     -2349.8869     -1933.9931    
   2126000   290.73423      1359.1956     -2309.4252     -1934.9189    
   2126500   306.09771      1824.7658     -2278.5969     -1884.0141    
   2127000   311.54758      648.32238     -2316.3761     -1916.1955    
   2127500   287.82865      1643.0738     -2297.4414     -1929.2173    
   2128000   321.64956      1609.0745     -2310.1956     -1896.9892    
   2128500   306.57704      1384.1175     -2294.8334     -1899.8566    
   2129000   303.1453       745.56248     -2333.5554     -1943.3355    
   2129500   292.96201      969.2565      -2287.8475     -1911.1644    
   2130000   324.74385     -175.02933     -2320.201      -1902.7235    
   2130500   286.57267      855.45031     -2319.196      -1949.7569    
   2131000   302.60164      1362.2513     -2324.3656     -1935.2555    
   2131500   304.43062      1760.4763     -2302.3142     -1910.9805    
   2132000   310.93078      2225.7492     -2330.0163     -1929.357     
   2132500   275.15037     -702.45961     -2331.484      -1976.3216    
   2133000   305.06871      1491.074      -2321.4532     -1930.1397    
   2133500   307.10833      206.62927     -2305.7767     -1910.8877    
   2134000   326.67492      1305.0663     -2287.8756     -1869.2941    
   2134500   285.02102      720.90081     -2258.6392     -1892.3598    
   2135000   311.15321     -530.89862     -2330.7971     -1932.5796    
   2135500   304.82395      664.40241     -2342.3333     -1950.0783    
   2136000   295.02281      671.64692     -2353.3546     -1972.1687    
   2136500   308.43053      1213.313      -2315.7893     -1919.5836    
   2137000   302.9777       1151.7856     -2319.7476     -1930.0976    
   2137500   284.88551      737.9364      -2339.0362     -1972.6245    
   2138000   299.83788      1777.5139     -2306.4624     -1919.109     
   2138500   298.01878      92.824139     -2319.5625     -1936.4622    
   2139000   295.94367      350.77355     -2357.6877     -1976.8716    
   2139500   286.8853       1827.9091     -2283.8082     -1914.1545    
   2140000   300.42636      1754.3838     -2317.2557     -1931.3138    
   2140500   294.86419      1171.5007     -2335.2278     -1955.2799    
   2141000   305.27838      1115.5867     -2304.9727     -1913.8739    
   2141500   301.46296      765.35842     -2283.3503     -1895.5772    
   2142000   289.65872      943.09197     -2327.587      -1955.7566    
   2142500   310.12724      1246.0461     -2327.6377     -1930.3304    
   2143000   304.46748      301.28554     -2283.8119     -1891.0882    
   2143500   336.37912      1290.1972     -2268.4026     -1834.2411    
   2144000   311.32026      2281.5254     -2299.1211     -1897.6132    
   2144500   302.22374      974.48855     -2327.9943     -1938.3139    
   2145000   304.86457     -50.793168     -2338.8666     -1945.4185    
   2145500   310.51831      1634.3757     -2293.5252     -1892.7377    
   2146000   300.42685      138.26558     -2304.3755     -1918.5237    
   2146500   291.26137      1592.8639     -2317.7673     -1943.6952    
   2147000   304.23365      1936.3894     -2333.6635     -1942.7741    
   2147500   309.48367     -359.28996     -2329.2171     -1930.2306    
   2148000   293.99328      425.11531     -2286.3661     -1905.8875    
   2148500   285.77367     -289.47409     -2325.3153     -1955.2652    
   2149000   294.11904      753.08262     -2344.0914     -1964.9167    
   2149500   301.36855      935.60664     -2296.698      -1907.6178    
   2150000   300.96439      934.23899     -2308.9753     -1920.7439    
   2150500   280.73343      2590.5956     -2336.1288     -1973.9184    
   2151000   291.81615      1355.3737     -2333.8957     -1957.1024    
   2151500   284.85425      1596.9587     -2291.0194     -1923.4316    
   2152000   321.93786      1031.4023     -2331.7367     -1915.4125    
   2152500   276.19282      105.99508     -2315.5302     -1959.3415    
   2153000   298.1885       599.98625     -2313.0275     -1926.8617    
   2153500   309.48729      431.61068     -2330.118      -1930.7972    
   2154000   259.96647      443.24553     -2324.5226     -1989.3735    
   2154500   298.22119      1559.0519     -2323.701      -1938.1545    
   2155000   338.04092      1443.0452     -2346.9252     -1909.3827    
   2155500   299.79306      939.9788      -2321.819      -1934.8528    
   2156000   301.53519     -504.29345     -2344.614      -1955.7612    
   2156500   294.83851      114.90109     -2287.5097     -1907.2903    
   2157000   295.8527       2481.7615     -2283.1971     -1900.1382    
   2157500   291.65594      1529.6946     -2298.4005     -1922.0642    
   2158000   308.37406      728.82433     -2323.332      -1925.4138    
   2158500   311.29265     -174.12744     -2304.5675     -1903.1244    
   2159000   304.41694      1687.4924     -2303.7894     -1910.5866    
   2159500   308.07894      1876.8983     -2335.5201     -1937.8505    
   2160000   291.74007      1332.1459     -2301.9973     -1924.0959    
   2160500   304.48287      943.77659     -2297.7628     -1903.3908    
   2161000   286.68218     -301.48303     -2295.0876     -1927.0649    
   2161500   282.03349      1003.867      -2319.4558     -1954.2511    
   2162000   323.9032       202.50674     -2317.7873     -1899.9143    
   2162500   296.94913      185.52434     -2322.2313     -1939.2465    
   2163000   301.69502      2441.5243     -2334.1703     -1943.5411    
   2163500   289.20345      423.73837     -2302.7031     -1929.8611    
   2164000   322.94383      1250.8696     -2285.4472     -1870.6242    
   2164500   326.91148      1741.9781     -2256.0108     -1834.2628    
   2165000   297.72832      433.57116     -2297.4084     -1912.9359    
   2165500   308.85181      372.39082     -2331.7341     -1931.6291    
   2166000   296.6026       1407.3554     -2352.9689     -1970.0572    
   2166500   304.56677      522.3049      -2326.006      -1932.9604    
   2167000   312.96068      1349.5769     -2328.7358     -1924.8426    
   2167500   301.66252      98.852271     -2341.0727     -1951.6864    
   2168000   295.73648      571.75975     -2303.2399     -1920.8213    
   2168500   306.78996      58.43955      -2290.2205     -1894.6765    
   2169000   281.19223      880.21209     -2314.4424     -1950.0979    
   2169500   297.15763      2873.0995     -2295.6957     -1911.9192    
   2170000   311.31093      749.74643     -2309.1059     -1907.1261    
   2170500   305.56741      1020.9967     -2330.8225     -1936.6094    
   2171000   291.17123      552.63952     -2346.6812     -1971.1566    
   2171500   305.68747      519.58524     -2315.8072     -1920.6914    
   2172000   314.00307      446.03503     -2298.1754     -1893.0388    
   2172500   309.73343      2295.9739     -2276.0957     -1875.231     
   2173000   307.44218      883.80071     -2327.3542     -1931.776     
   2173500   295.40242      2990.9165     -2310.6649     -1929.3568    
   2174000   314.31284      1696.9484     -2281.4272     -1875.7461    
   2174500   305.33001      820.63282     -2311.6485     -1919.4602    
   2175000   301.00864     -791.10367     -2324.3063     -1936.1558    
   2175500   312.13486      1328.6018     -2305.2728     -1902.8631    
   2176000   325.52388      1653.5545     -2313.7934     -1893.6271    
   2176500   290.02338      902.84948     -2322.6758     -1948.4131    
   2177000   302.57529      306.39464     -2348.4358     -1956.8302    
   2177500   293.09791      1034.9162     -2323.4262     -1944.3936    
   2178000   317.32765      1047.1735     -2314.6508     -1904.9452    
   2178500   280.23636      3008.0857     -2329.2835     -1967.7191    
   2179000   304.51481      397.61169     -2332.309      -1939.6622    
   2179500   310.75744     -3.2487885     -2307.094      -1906.4643    
   2180000   280.13854      1128.1883     -2291.5291     -1929.3145    
   2180500   296.77036      651.47929     -2328.0543     -1943.8616    
   2181000   290.96248      601.73407     -2288.6662     -1912.1394    
   2181500   291.81651      520.22508     -2326.5601     -1949.2808    
   2182000   279.29741      881.35473     -2339.7263     -1979.4692    
   2182500   301.49619      147.35952     -2335.0285     -1945.5081    
   2183000   291.85077      2457.0536     -2306.7695     -1929.0034    
   2183500   316.22184      1219.4209     -2286.7381     -1879.0027    
   2184000   301.42686      597.88732     -2313.481      -1925.1898    
   2184500   302.1286       1289.9675     -2321.3738     -1930.2991    
   2185000   300.61624      140.82825     -2338.4974     -1950.8717    
   2185500   311.60684      1331.8755     -2302.5649     -1901.5078    
   2186000   300.59475      1197.7685     -2331.8117     -1942.7879    
   2186500   297.97586      1497.1116     -2317.1198     -1931.5062    
   2187000   312.81036      948.18543     -2312.1299     -1908.7898    
   2187500   339.21783      1391.0162     -2313.2764     -1874.7588    
   2188000   296.60347      1884.5483     -2306.5485     -1922.2059    
   2188500   294.31074      1221.9949     -2340.3706     -1961.5941    
   2189000   315.24164      694.95575     -2318.2007     -1909.8899    
   2189500   305.77394     -488.87356     -2317.6865     -1921.6132    
   2190000   292.34428     -80.46759      -2335.2498     -1958.4288    
   2190500   309.5898       1176.6871     -2303.0034     -1903.6958    
   2191000   298.52698      652.00096     -2300.6739     -1915.72      
   2191500   299.26677     -143.62689     -2328.1792     -1943.2102    
   2192000   275.62154     -260.16047     -2325.4413     -1970.846     
   2192500   296.62178      1359.4495     -2305.3065     -1923.5512    
   2193000   296.20368      731.40846     -2289.4344     -1905.7319    
   2193500   304.7472       1276.0516     -2272.0006     -1880.7493    
   2194000   291.31804      837.21329     -2309.6073     -1932.3292    
   2194500   303.23457      2290.0595     -2333.3412     -1943.5897    
   2195000   328.31134      704.25321     -2311.2498     -1886.5982    
   2195500   294.95006      117.67961     -2286.5289     -1907.1266    
   2196000   292.29698      104.47475     -2305.342      -1927.4861    
   2196500   312.06898      290.67095     -2288.977      -1886.1134    
   2197000   301.09745      989.35599     -2283.4367     -1895.1938    
   2197500   277.50278      980.47547     -2290.0749     -1930.5295    
   2198000   307.88897     -87.989708     -2314.6488     -1917.3412    
   2198500   313.77653      1420.0859     -2277.5825     -1871.9323    
   2199000   297.17884      89.407661     -2300.9725     -1917.3595    
   2199500   289.9269       995.69998     -2303.8633     -1930.5422    
   2200000   296.39259      86.555351     -2363.1381     -1982.2928    
   2200500   309.63033      1035.4844     -2349.8628     -1950.2681    
   2201000   295.37072      1001.1033     -2319.0243     -1938.6361    
   2201500   313.84324      715.59154     -2304.2696     -1900.3418    
   2202000   301.12663      756.20222     -2327.6545     -1938.3062    
   2202500   294.29538      802.31038     -2324.6953     -1943.4659    
   2203000   289.01668      1295.7955     -2296.9192     -1923.9102    
   2203500   315.42711     -1176.3476     -2345.5695     -1939.1651    
   2204000   316.11021      1320.8152     -2305.0301     -1897.4086    
   2204500   293.45625      1009.9963     -2314.2897     -1934.9422    
   2205000   297.36952     -83.590198     -2327.6515     -1944.198     
   2205500   327.28792      1956.8974     -2304.7623     -1882.6807    
   2206000   302.48594      131.9379      -2271.3544     -1881.1592    
   2206500   304.12344      1626.7359     -2312.0617     -1919.1512    
   2207000   285.01056      2012.1869     -2321.5667     -1953.5115    
   2207500   279.22552     -221.02884     -2350.942      -1990.9736    
   2208000   290.61934      9.3256658     -2300.9967     -1925.8178    
   2208500   308.80328      2230.8192     -2308.112      -1909.2526    
   2209000   293.88518      1683.7991     -2334.277      -1953.9853    
   2209500   286.7098       682.65364     -2330.5559     -1960.5338    
   2210000   310.64982      444.61706     -2310.3949     -1909.71      
   2210500   299.85054      2055.5764     -2323.3877     -1935.1885    
   2211000   278.93802     -124.29666     -2308.4799     -1950.5098    
   2211500   313.2165       1682.4741     -2328.7926     -1923.076     
   2212000   303.58644      1921.6567     -2350.9689     -1960.2166    
   2212500   300.90038      353.57713     -2347.1411     -1959.1707    
   2213000   305.27032      749.30255     -2330.4833     -1936.9861    
   2213500   306.19891      668.45103     -2316.8238     -1920.2077    
   2214000   303.37348      2633.6885     -2257.184      -1865.9709    
   2214500   304.69503      3191.5077     -2312.7887     -1919.0961    
   2215000   281.46424      1303.6074     -2318.0802     -1954.7924    
   2215500   298.09291     -284.15029     -2292.5054     -1907.4869    
   2216000   295.98678      1743.8421     -2293.5695     -1911.5175    
   2216500   309.79239      1017.1787     -2356.6077     -1956.3726    
   2217000   293.25339      757.0852      -2341.6325     -1962.4612    
   2217500   308.27244      775.22968     -2321.9182     -1924.177     
   2218000   303.34392      584.84581     -2298.9668     -1907.7774    
   2218500   308.35814      442.2583      -2322.2904     -1926.2152    
   2219000   286.48455      1273.9866     -2293.093      -1925.1934    
   2219500   302.91303      824.538       -2273.6558     -1882.6249    
   2220000   295.62316      1974.7712     -2289.6583     -1908.53      
   2220500   287.99951      1622.8908     -2314.0162     -1941.157     
   2221000   306.71881      1247.6685     -2325.5985     -1929.9474    
   2221500   331.59346      2816.9547     -2309.3862     -1881.367     
   2222000   293.80546      138.84138     -2303.5969     -1923.9777    
   2222500   295.30468      95.228509     -2308.6966     -1927.4962    
   2223000   310.55719      1107.5952     -2293.0948     -1892.6209    
   2223500   286.69099      1416.9478     -2306.8058     -1937.7146    
   2224000   291.66484      387.00771     -2321.8971     -1945.1957    
   2224500   319.37286      58.051213     -2299.8704     -1888.0536    
   2225000   283.11112      910.47114     -2279.8942     -1915.1522    
   2225500   301.43987      1565.6405     -2310.341      -1920.6287    
   2226000   316.05508     -183.39537     -2316.7829     -1908.8944    
   2226500   313.19871      1743.7152     -2264.676      -1860.585     
   2227000   293.24422      977.57677     -2287.5603     -1910.6686    
   2227500   312.26898      2007.8035     -2346.6193     -1942.7041    
   2228000   293.45478      118.35443     -2348.829      -1970.5279    
   2228500   299.32233      320.33514     -2330.6095     -1945.1047    
   2229000   304.26352      1879.8508     -2301.4245     -1908.9706    
   2229500   314.14105     -12.54571      -2282.0681     -1877.1917    
   2230000   290.91684     -404.48918     -2313.2812     -1939.5175    
   2230500   298.18797      116.31466     -2295.3529     -1912.3801    
   2231000   294.6821       722.06565     -2316.2432     -1937.4557    
   2231500   281.95636      697.80954     -2313.9856     -1951.2669    
   2232000   305.25261      1098.8814     -2297.5313     -1904.0692    
   2232500   300.4931       402.20833     -2302.501      -1915.9523    
   2233000   291.99161      992.90163     -2305.4793     -1927.4768    
   2233500   298.97458     -901.60961     -2318.0225     -1932.339     
   2234000   288.55049      679.57559     -2318.5635     -1946.8874    
   2234500   302.87566      965.46261     -2324.5443     -1932.4524    
   2235000   311.51686      1484.4608     -2298.5786     -1897.1122    
   2235500   301.00683     -363.60067     -2338.4671     -1950.6215    
   2236000   286.37998      1884.5923     -2298.5431     -1929.5241    
   2236500   297.22926      3184.4708     -2293.985      -1910.0114    
   2237000   310.83609      1679.2185     -2354.7539     -1952.4983    
   2237500   292.25217      686.29348     -2366.6182     -1989.7556    
   2238000   303.05677      1177.7788     -2329.5925     -1938.4427    
   2238500   279.74283      952.00047     -2297.0481     -1936.1986    
   2239000   303.06901      1119.0702     -2317.8061     -1926.795     
   2239500   309.26019      631.8868      -2308.8703     -1909.952     
   2240000   283.11518      1554.5134     -2315.653      -1950.6749    
   2240500   294.27156     -294.95723     -2337.4083     -1957.6507    
   2241000   306.8731       1810.551      -2300.1689     -1903.8226    
   2241500   311.46814      933.93135     -2339.8083     -1936.3338    
   2242000   307.41077     -512.22223     -2375.9117     -1979.4648    
   2242500   302.24073      1021.1306     -2307.6058     -1919.2159    
   2243000   309.63076      936.0341      -2311.582      -1911.9587    
   2243500   270.98967      2237.1932     -2313.0318     -1963.1785    
   2244000   297.77941      548.26712     -2322.7531     -1937.681     
   2244500   304.82424      513.72246     -2317.8901     -1923.163     
   2245000   305.63987      1590.355      -2348.2882     -1954.6713    
   2245500   281.7403       2047.3904     -2348.3852     -1983.6876    
   2246000   284.18485      1557.5131     -2309.2157     -1942.532     
   2246500   299.36957      1548.6431     -2285.5736     -1900.0057    
   2247000   313.70401      1007.7723     -2349.9671     -1945.6986    
   2247500   299.83028      1969.7809     -2347.0224     -1959.4942    
   2248000   308.4423       2144.3736     -2325.9132     -1928.576     
   2248500   325.73734      1053.0438     -2296.973      -1877.4858    
   2249000   283.62245      28.961657     -2309.5073     -1942.5483    
   2249500   326.05008      1232.9931     -2342.0228     -1923.617     
   2250000   299.50786      940.72649     -2300.5593     -1914.5632    
   2250500   305.76007      1354.1113     -2273.7289     -1880.7672    
   2251000   300.74054      1154.487      -2300.6274     -1913.8138    
   2251500   291.57621      441.01649     -2324.8826     -1949.1993    
   2252000   322.04148     -712.5176      -2317.357      -1902.7088    
   2252500   312.82744      534.89148     -2307.7351     -1905.7372    
   2253000   304.35083      1237.0486     -2333.8158     -1942.1025    
   2253500   312.96722      1542.5955     -2294.8236     -1890.7466    
   2254000   302.76729      1136.8514     -2306.5324     -1915         
   2254500   301.72186      2669.5031     -2321.029      -1930.3063    
   2255000   320.67184      1180.5436     -2298.8489     -1885.5876    
   2255500   282.66734      936.77798     -2282.8896     -1918.3444    
   2256000   286.08173      783.49348     -2310.0747     -1940.7808    
   2256500   308.23141      3455.7916     -2307.3165     -1909.4176    
   2257000   305.30013      1726.7212     -2297.8906     -1903.0163    
   2257500   291.86014      323.73958     -2317.2251     -1942.0365    
   2258000   295.32426      1668.067      -2292.4869     -1911.7319    
   2258500   303.12068      2831.1785     -2240.0153     -1848.4917    
   2259000   299.95309      90.33974      -2285.6964     -1898.4988    
   2259500   292.43332     -154.883       -2319.6007     -1942.1039    
   2260000   317.26193      1597.6717     -2327.1622     -1917.5943    
   2260500   321.46044      1370.7166     -2302.157      -1887.2507    
   2261000   296.13498      1431.2383     -2297.3492     -1916.1096    
   2261500   311.16381      447.41495     -2349.2654     -1948.9886    
   2262000   263.98366     -288.53872     -2332.8156     -1992.1281    
   2262500   287.36248      207.85611     -2293.8218     -1922.4398    
   2263000   294.46488      1741.7621     -2297.1003     -1917.2585    
   2263500   294.71379      997.3893      -2338.6304     -1958.5955    
   2264000   293.83896      1176.4832     -2320.94       -1941.9634    
   2264500   302.78577      1806.7422     -2314.503      -1922.76      
   2265000   296.71344      2252.0527     -2302.8407     -1918.7128    
   2265500   309.09567      549.32404     -2330.5451     -1930.8946    
   2266000   297.07284      507.3551      -2332.4786     -1949.654     
   2266500   311.4376       977.42285     -2308.2025     -1904.9709    
   2267000   276.99118      661.57361     -2275.6026     -1919.5988    
   2267500   296.97054     -1237.8767     -2328.9389     -1946.4986    
   2268000   295.97874      1426.8246     -2297.9844     -1917.8611    
   2268500   296.52641      470.37964     -2304.8281     -1924.5813    
   2269000   295.84955      447.30746     -2334.675      -1953.4407    
   2269500   296.93293      1868.4238     -2283.6968     -1901.3403    
   2270000   293.76708      94.395394     -2301.2242     -1923.7193    
   2270500   292.57279      1432.4133     -2342.961      -1966.6265    
   2271000   266.01348      507.07043     -2329.183      -1984.6941    
   2271500   295.87145      1278.7851     -2310.3467     -1929.8231    
   2272000   303.90735      1250.2787     -2291.6499     -1898.1794    
   2272500   290.64684      954.78452     -2317.7667     -1943.0791    
   2273000   281.95409      1248.2226     -2312.6741     -1948.8228    
   2273500   285.80953      1525.3905     -2294.137      -1925.6537    
   2274000   295.33325      1034.5669     -2299.5521     -1918.5161    
   2274500   321.70147      2310.3775     -2286.291      -1869.9035    
   2275000   297.00898      1986.6019     -2303.6258     -1920.2229    
   2275500   308.91388      1555.5081     -2334.1977     -1935.2622    
   2276000   304.62169      462.68482     -2315.2119     -1921.9881    
   2276500   302.66874      1372.6772     -2286.3227     -1895.6015    
   2277000   308.93366      911.92426     -2339.4539     -1941.0837    
   2277500   286.89597      978.14755     -2296.1085     -1924.5402    
   2278000   310.70895      1444.0261     -2282.6779     -1881.7755    
   2278500   303.95136      188.67148     -2339.2964     -1948.3009    
   2279000   299.55186      2158.59       -2316.8228     -1930.1143    
   2279500   294.73669      2037.9862     -2282.3963     -1901.7568    
   2280000   292.50621     -513.36973     -2330.8689     -1954.0514    
   2280500   299.23844      690.86467     -2316.5546     -1932.3755    
   2281000   304.50253      1040.2516     -2295.0071     -1904.9633    
   2281500   304.5613       669.27291     -2325.0021     -1935.2935    
   2282000   292.5944       440.23274     -2332.2641     -1957.126     
   2282500   288.47617      1215.837      -2325.8967     -1954.2062    
   2283000   300.13237     -209.43078     -2293.7712     -1906.6593    
   2283500   329.94606      437.6546      -2334.0658     -1910.5309    
   2284000   284.79632      1148.9208     -2331.1884     -1963.9271    
   2284500   312.64843     -732.45153     -2321.9944     -1918.2314    
   2285000   288.79908      1064.0702     -2294.2618     -1921.5156    
   2285500   315.05916     -368.15753     -2330.7568     -1922.6917    
   2286000   306.70983      784.73263     -2337.657      -1941.3882    
   2286500   314.16572      2387.9199     -2289.7312     -1882.8345    
   2287000   291.60124      764.38414     -2306.373      -1931.3755    
   2287500   296.70307      1922.8371     -2312.5144     -1930.9346    
   2288000   330.10081      1192.4123     -2295.7879     -1871.6024    
   2288500   300.98251      303.43002     -2292.5066     -1903.8857    
   2289000   286.5696       1259.7597     -2298.293      -1930.5024    
   2289500   275.66806      765.52885     -2320.6695     -1966.5268    
   2290000   299.49183      720.23989     -2338.8138     -1952.38      
   2290500   305.04075      1695.1129     -2316.5897     -1924.4568    
   2291000   289.23733      1390.3243     -2300.0867     -1927.2134    
   2291500   320.4623       880.52399     -2304.1577     -1890.4339    
   2292000   288.07722     -171.43377     -2316.191      -1945.9703    
   2292500   296.72421      2502.1195     -2327.9587     -1944.0115    
   2293000   306.58303      2336.0864     -2315.1128     -1919.4877    
   2293500   313.96368      1073.3551     -2294.6249     -1889.81      
   2294000   304.85284      499.5876      -2336.1314     -1942.4152    
   2294500   307.99302      472.65324     -2326.0775     -1928.9373    
   2295000   300.91877      1646.0295     -2274.6504     -1886.6371    
   2295500   290.31029      429.97484     -2286.0144     -1909.9397    
   2296000   295.59404      1591.0341     -2312.4111     -1929.6487    
   2296500   294.75429      478.65395     -2269.7608     -1889.2812    
   2297000   303.65195      452.09355     -2292.6405     -1900.5105    
   2297500   287.85461      1670.1114     -2317.7151     -1946.9095    
   2298000   301.26914      1194.6933     -2300.6541     -1912.4861    
   2298500   308.87531     -831.05615     -2299.9275     -1900.4404    
   2299000   275.78         908.48412     -2313.5867     -1957.4958    
   2299500   288.48654      1312.255      -2307.5316     -1935.6598    
   2300000   307.05962      2472.7097     -2304.1812     -1907.7674    
   2300500   287.21456      130.53576     -2307.0632     -1936.5865    
   2301000   317.94838      907.09937     -2286.078      -1875.1956    
   2301500   305.48838     -136.03588     -2320.728      -1925.8831    
   2302000   296.04915      1677.9105     -2296.864      -1914.9896    
   2302500   298.73309     -1119.4386     -2270.496      -1884.4458    
   2303000   302.03624      618.54904     -2335.2286     -1944.6806    
   2303500   307.72136     -987.34431     -2316.5099     -1919.2661    
   2304000   287.54536      1203.3131     -2276.4333     -1905.4162    
   2304500   285.08489     -670.26721     -2335.2828     -1969.0946    
   2305000   298.89932      1183.2877     -2311.4327     -1926.0242    
   2305500   311.10855      176.79366     -2312.8725     -1910.1386    
   2306000   297.86857     -1005.8976     -2351.9998     -1967.831     
   2306500   293.924        211.91716     -2316.8224     -1936.502     
   2307000   284.91189     -505.39707     -2276.5165     -1907.6089    
   2307500   311.24885      254.44063     -2340.6577     -1937.6746    
   2308000   299.873        188.38311     -2340.1309     -1953.5981    
   2308500   314.41519      2211.6055     -2306.4176     -1900.5656    
   2309000   275.40718      861.64899     -2298.9352     -1942.4616    
   2309500   307.52869      1996.3264     -2309.5646     -1911.6513    
   2310000   318.26459     -592.53362     -2295.9431     -1885.2511    
   2310500   301.88019      969.35896     -2332.2676     -1941.7021    
   2311000   282.02416      190.50961     -2299.4226     -1935.2992    
   2311500   310.44134     -779.64823     -2288.9097     -1889.1321    
   2312000   299.65229      1588.8044     -2306.9934     -1920.7927    
   2312500   296.40362     -978.56284     -2319.5951     -1937.3132    
   2313000   306.50579      411.99578     -2326.0724     -1931.1039    
   2313500   288.59327      1681.2626     -2331.7198     -1959.442     
   2314000   294.79729      454.46289     -2302.7682     -1924.1141    
   2314500   307.70041      438.38447     -2321.2016     -1924.3127    
   2315000   281.94433      455.59885     -2315.6831     -1953.6991    
   2315500   293.20305      110.84043     -2298.0578     -1919.0751    
   2316000   306.74688      990.5163      -2299.5385     -1902.467     
   2316500   297.6673       1701.1091     -2339.9018     -1954.8494    
   2317000   293.57267      488.80505     -2325.82       -1946.7846    
   2317500   298.21792      862.63749     -2318.6417     -1934.0129    
   2318000   305.3769       1246.2643     -2293.995      -1899.4302    
   2318500   288.3159       196.61313     -2321.4539     -1949.3432    
   2319000   302.64019     -1028.9932     -2325.3437     -1934.5892    
   2319500   313.0113       1746.4531     -2309.7716     -1906.0568    
   2320000   307.93757      2075.4076     -2260.1247     -1862.6742    
   2320500   290.44755      711.69012     -2293.4981     -1918.8851    
   2321000   301.97149      958.51246     -2327.6077     -1937.2408    
   2321500   292.55184     -195.84202     -2355.1878     -1978.0002    
   2322000   292.71999      2067.0378     -2315.1125     -1936.8463    
   2322500   287.97871      203.01853     -2292.7417     -1921.2752    
   2323000   307.41747      703.07722     -2348.9028     -1953.1154    
   2323500   308.78397      183.23938     -2353.0124     -1954.9711    
   2324000   308.83192     -791.47157     -2328.9652     -1930.0942    
   2324500   311.01474      393.14619     -2316.9369     -1914.4004    
   2325000   304.23869      1355.0802     -2343.0373     -1950.5388    
   2325500   303.06472      253.28991     -2304.9969     -1912.7231    
   2326000   303.93849      1553.144      -2295.0803     -1902.3672    
   2326500   301.13552      290.40797     -2335.6269     -1947.896     
   2327000   301.62075     -300.38629     -2322.0498     -1932.9341    
   2327500   316.4952       161.33351     -2285.8376     -1879.2873    
   2328000   302.29521      178.6678      -2289.2409     -1899.7825    
   2328500   290.89484      593.59679     -2309.007      -1933.928     
   2329000   314.66378      1429.3804     -2334.2703     -1928.7593    
   2329500   328.83714      898.04223     -2312.716      -1888.9807    
   2330000   304.21737      2466.6455     -2333.5443     -1942.8719    
   2330500   315.89473      344.41393     -2344.1279     -1936.8819    
   2331000   313.11871      1993.733      -2285.7826     -1880.6995    
   2331500   291.23846      691.33248     -2271.8561     -1895.9591    
   2332000   290.43371      365.73014     -2292.8018     -1916.8277    
   2332500   283.17837      253.62073     -2330.9214     -1965.323     
   2333000   294.71811     -155.14583     -2292.3321     -1911.8671    
   2333500   316.65942     -361.85882     -2322.9073     -1913.8002    
   2334000   292.92342      1112.0394     -2324.2305     -1946.5366    
   2334500   318.67028      2178.0546     -2306.4508     -1895.1854    
   2335000   314.47309      844.12592     -2309.308      -1903.6252    
   2335500   286.3666       1326.8773     -2293.982      -1924.0192    
   2336000   311.8831       1528.3878     -2318.4698     -1914.5298    
   2336500   312.35274      12.197601     -2283.8799     -1881.0575    
   2337000   293.54435      980.88311     -2321.5478     -1944.4822    
   2337500   299.57513      1446.0244     -2328.4856     -1942.0543    
   2338000   284.16319     -1202.4121     -2334.9816     -1968.492     
   2338500   305.96021      2104.4727     -2307.5535     -1912.1741    
   2339000   285.71531      1316.2387     -2316.2645     -1947.3799    
   2339500   294.20038      1728.5587     -2317.9001     -1939.5836    
   2340000   309.82148      1071.8312     -2318.4648     -1920.0234    
   2340500   309.54024      1114.8021     -2320.2393     -1920.3491    
   2341000   299.43645      546.92029     -2328.2182     -1943.2545    
   2341500   311.97103      813.03828     -2341.5832     -1939.7196    
   2342000   317.40236      1405.5911     -2305.431      -1896.4085    
   2342500   301.73144      2699.0383     -2312.5866     -1923.4668    
   2343000   311.79466      1235.7881     -2338.1448     -1935.5276    
   2343500   282.88179      571.0935      -2276.1465     -1909.8659    
   2344000   311.52953      249.58392     -2290.6643     -1888.8129    
   2344500   295.71725      1297.5085     -2306.5362     -1925.0896    
   2345000   297.26297      167.81961     -2327.5573     -1944.0922    
   2345500   308.87757      1712.4625     -2299.6667     -1899.9614    
   2346000   296.81849      2718.5456     -2310.8042     -1926.2562    
   2346500   286.99548      175.6131      -2319.901      -1948.0297    
   2347000   299.92707      1122.6241     -2303.5889     -1916.0232    
   2347500   319.86945      901.0341      -2291.5934     -1877.6305    
   2348000   292.83633      711.1569      -2319.6339     -1940.3923    
   2348500   293.09212      2253.0527     -2308.7134     -1929.3055    
   2349000   310.77126      1524.9347     -2287.4655     -1886.7927    
   2349500   289.1526       1371.2114     -2314.8176     -1941.1237    
   2350000   303.73269      892.97699     -2333.9538     -1942.2354    
   2350500   314.4713       1874.7093     -2296.36       -1892.56      
   2351000   296.28164      1009.8854     -2283.4827     -1901.1225    
   2351500   296.90654      1342.5086     -2332.0472     -1950.2956    
   2352000   305.50507      1876.8699     -2305.1726     -1911.238     
   2352500   314.85016      1607.9353     -2294.2705     -1889.0014    
   2353000   296.69543      1061.3037     -2335.129      -1952.8106    
   2353500   290.65894      1279.1451     -2289.6357     -1916.3054    
   2354000   307.01811      1245.4663     -2302.549      -1906.4832    
   2354500   287.55592      178.3384      -2333.6225     -1961.478     
   2355000   287.47763      1968.8976     -2312.5135     -1941.7558    
   2355500   309.96942      1073.4212     -2303.8592     -1903.156     
   2356000   304.43749      1608.8296     -2322.2265     -1929.1807    
   2356500   284.58139      1601.0509     -2310.7915     -1943.5557    
   2357000   297.66427      367.03245     -2328.0997     -1943.0643    
   2357500   311.50325      853.20025     -2298.7289     -1896.6828    
   2358000   287.42001     -346.8424      -2304.5389     -1935.1824    
   2358500   304.50319      240.29493     -2308.7378     -1915.7829    
   2359000   297.4954       2470.3918     -2277.4375     -1893.1455    
   2359500   299.98783      985.96949     -2325.8985     -1937.6609    
   2360000   284.28002      1340.3608     -2315.219      -1948.3043    
   2360500   307.81914      1699.1648     -2300.3816     -1903.3322    
   2361000   305.25149      586.31897     -2301.3959     -1907.6778    
   2361500   284.79146     -438.75934     -2331.1223     -1963.8795    
   2362000   296.42181      95.945576     -2315.6729     -1933.3853    
   2362500   307.20105      1487.4041     -2263.3907     -1866.3846    
   2363000   307.72828      596.45407     -2284.1251     -1886.9402    
   2363500   281.91649      957.17783     -2299.7027     -1935.7614    
   2364000   296.77653      67.41274      -2301.6393     -1918.9449    
   2364500   304.55528      993.28274     -2278.3792     -1883.8892    
   2365000   292.90202      1557.5249     -2301.5476     -1921.9988    
   2365500   287.14061      89.277493     -2289.7212     -1919.0105    
   2366000   306.14017      672.70336     -2311.5038     -1916.3118    
   2366500   289.7625       695.02675     -2326.1085     -1951.939     
   2367000   309.32024      1584.8923     -2314.7249     -1914.2842    
   2367500   311.58627      864.21404     -2308.7334     -1905.3383    
   2368000   289.63343      2228.321      -2322.6342     -1948.7873    
   2368500   295.69945      590.98308     -2312.9736     -1932.0095    
   2369000   314.66542      2411.8615     -2314.5093     -1908.3068    
   2369500   283.72594      224.72904     -2322.865      -1956.9305    
   2370000   282.89587      3144.1533     -2291.7191     -1925.2815    
   2370500   287.33548      633.41409     -2276.9607     -1906.0236    
   2371000   292.59743      1473.5914     -2308.6504     -1931.0831    
   2371500   310.93421     -447.31439     -2338.5575     -1938.0692    
   2372000   295.28829      312.47689     -2299.1363     -1918.6277    
   2372500   306.67457      1116.1478     -2313.5823     -1918.1707    
   2373000   286.49353      2420.5148     -2315.1877     -1945.9685    
   2373500   291.98358      932.00149     -2318.2984     -1941.294     
   2374000   301.5393      -198.26414     -2287.6135     -1897.152     
   2374500   298.61525      1076.577      -2327.0994     -1942.2945    
   2375000   284.34494      1658.9298     -2307.9199     -1941.7937    
   2375500   303.83407      319.35117     -2320.1567     -1927.9912    
   2376000   298.71751      2144.5879     -2354.5887     -1967.799     
   2376500   312.89354      1100.7733     -2351.5655     -1947.9945    
   2377000   314.29727      1090.6361     -2322.5394     -1916.4752    
   2377500   311.79246      2221.6722     -2339.4933     -1937.3847    
   2378000   278.90032      1327.4279     -2292.8121     -1934.7518    
   2378500   308.71415      16.192862     -2319.4425     -1922.604     
   2379000   289.70088      1551.027      -2349.1256     -1975.3995    
   2379500   295.51164     -811.16971     -2311.4153     -1931.6769    
   2380000   308.32802      538.09293     -2336.2039     -1937.0934    
   2380500   289.80313      1200.1266     -2317.9496     -1942.811     
   2381000   315.70757      1389.3861     -2303.7807     -1896.3886    
   2381500   310.23675      420.18812     -2337.8749     -1937.4901    
   2382000   291.71966      1485.2565     -2312.7408     -1935.9224    
   2382500   294.48687      462.78062     -2310.7854     -1930.6956    
   2383000   304.43173      557.50019     -2299.5065     -1908.2377    
   2383500   302.61062      1957.0382     -2266.0029     -1875.4872    
   2384000   296.92166      160.78176     -2309.383      -1927.8938    
   2384500   298.43292      1360.2755     -2317.0842     -1932.0922    
   2385000   302.13904     -579.59467     -2334.0934     -1945.6017    
   2385500   294.43236      1152.9675     -2316.9819     -1937.0591    
   2386000   303.1719       665.89976     -2294.6257     -1904.6206    
   2386500   299.64507     -134.87849     -2350.4834     -1965.1623    
   2387000   300.12779      2236.3148     -2326.7309     -1942.1968    
   2387500   291.98974      2431.6199     -2292.7821     -1917.4744    
   2388000   297.00604      3265.7935     -2316.5755     -1934.6525    
   2388500   283.63173      754.49662     -2341.265      -1976.0245    
   2389000   295.89366     -129.17466     -2363.694      -1983.6645    
   2389500   304.01681      710.58969     -2324.2368     -1933.0053    
   2390000   300.84273      1034.853      -2298.4157     -1912.7306    
   2390500   312.10024      502.93339     -2293.3848     -1892.3515    
   2391000   291.51392     -311.4116      -2302.8463     -1927.6632    
   2391500   306.22497      732.83456     -2336.3092     -1943.3468    
   2392000   300.30577      1604.2081     -2313.2564     -1925.4466    
   2392500   308.4661       472.53625     -2288.9874     -1893.4463    
   2393000   281.74529      752.92253     -2310.4429     -1947.3178    
   2393500   291.45017      1124.3237     -2320.7621     -1943.3125    
   2394000   311.94367      1153.6328     -2317.9199     -1916.7089    
   2394500   325.07319      911.06812     -2290.0271     -1870.7938    
   2395000   300.37817      914.95064     -2312.3159     -1924.6602    
   2395500   308.50462      2061.2409     -2325.1583     -1926.1813    
   2396000   300.61788      946.2215      -2272.6986     -1884.1772    
   2396500   300.00068      678.30773     -2328.1674     -1941.6594    
   2397000   289.16595      698.00106     -2291.2999     -1918.3621    
   2397500   311.91543      2193.5777     -2283.3325     -1880.0927    
   2398000   319.4967      -65.370931     -2313.433      -1900.1386    
   2398500   290.11328      437.85833     -2318.9778     -1944.2748    
   2399000   291.6833       96.348171     -2314.7657     -1938.1149    
   2399500   301.22206      1042.9791     -2315.8722     -1927.7404    
   2400000   319.62249      2647.3302     -2316.7878     -1904.7496    
   2400500   307.32718      2561.5972     -2274.9739     -1877.5955    
   2401000   285.38195      1478.7511     -2301.6344     -1933.6295    
   2401500   291.31796     -36.456016     -2304.2388     -1929.5292    
   2402000   308.52555      1158.9898     -2282.0724     -1884.1303    
   2402500   315.83457      502.52564     -2330.3518     -1924.7249    
   2403000   296.90882      229.21723     -2336.8811     -1952.8967    
   2403500   285.13613      651.6662      -2267.3297     -1899.6524    
   2404000   314.85297      847.70318     -2313.3883     -1907.1619    
   2404500   282.63452     -64.578887     -2322.8114     -1958.6139    
   2405000   273.50108     -23.022386     -2357.623      -2004.4984    
   2405500   300.38593      1621.5213     -2338.4828     -1950.5931    
   2406000   308.48773      2995.9352     -2316.4654     -1918.3656    
   2406500   303.04218      1050.5129     -2298.6462     -1907.3979    
   2407000   308.57649      1628.354      -2320.0791     -1921.6516    
   2407500   301.65628      608.37018     -2322.8872     -1934.0652    
   2408000   317.26481      699.63084     -2287.3754     -1878.3357    
   2408500   292.41986     -749.13762     -2296.9184     -1921.1819    
   2409000   309.90858      1022.8793     -2334.8831     -1933.5826    
   2409500   294.28619     -15.645931     -2312.4187     -1932.9301    
   2410000   313.42148     -1006.3726     -2297.4127     -1891.6362    
   2410500   274.41939      413.39        -2292.1112     -1936.9261    
   2411000   302.97945      1943.3728     -2327.2594     -1934.9422    
   2411500   320.3374       1491.5739     -2303.4925     -1890.1408    
   2412000   317.23117      1195.6977     -2261.6245     -1851.3599    
   2412500   280.85433      66.965229     -2291.6203     -1929.2837    
   2413000   280.96667      419.114       -2310.3077     -1949.4103    
   2413500   296.10444      715.11625     -2282.8778     -1900.9423    
   2414000   313.764        1022.6841     -2309.3339     -1904.2221    
   2414500   298.13869      936.48263     -2337.8683     -1951.5957    
   2415000   301.62662      2224.123      -2311.2469     -1921.778     
   2415500   302.11387      1212.2162     -2296.342      -1904.9739    
   2416000   298.25643      1068.8734     -2346.4111     -1961.1347    
   2416500   295.78499      661.97134     -2347.8319     -1965.7019    
   2417000   287.74816      1359.0296     -2292.2197     -1920.722     
   2417500   306.28063      13.516506     -2304.9139     -1908.7484    
   2418000   283.59723      14.858849     -2326.4535     -1960.1941    
   2418500   307.72885     -34.151538     -2314.3401     -1915.8611    
   2419000   300.06792      2390.5338     -2306.4641     -1919.4945    
   2419500   287.39188      934.71626     -2317.2048     -1946.4506    
   2420000   281.55897      731.9376      -2341.4636     -1977.7975    
   2420500   299.81659      399.8759      -2309.9364     -1924.4084    
   2421000   302.47931      654.75838     -2298.2424     -1907.5638    
   2421500   306.16629      1741.0057     -2345.3137     -1950.3281    
   2422000   282.45042     -581.20429     -2315.4344     -1952.9677    
   2422500   301.98327      998.28375     -2298.5503     -1910.5       
   2423000   305.84884      293.93708     -2310.2871     -1916.1937    
   2423500   287.49419      511.6678      -2340.0287     -1967.9372    
   2424000   281.04198      479.45077     -2299.8299     -1936.9956    
   2424500   282.0169       718.50076     -2284.9553     -1923.0812    
   2425000   298.40708     -173.63317     -2340.0403     -1953.829     
   2425500   274.76079     -2220.1113     -2332.0448     -1977.7086    
   2426000   318.0421       462.45854     -2329.4343     -1919.1863    
   2426500   287.66847      371.22285     -2306.8584     -1935.5541    
   2427000   284.35471      1195.1991     -2329.535      -1963.4675    
   2427500   300.21766      1849.9527     -2303.6317     -1916.2055    
   2428000   296.92455      564.89188     -2301.6567     -1918.504     
   2428500   290.83488      1409.0536     -2347.9346     -1971.2564    
   2429000   303.62654      384.35171     -2336.3217     -1944.1933    
   2429500   312.3913       2242.5755     -2329.6155     -1925.1164    
   2430000   272.58737      324.85889     -2327.7638     -1977.3434    
   2430500   298.4185       1456.784      -2312.0819     -1929.5782    
   2431000   288.64026      803.17695     -2293.0999     -1923.065     
   2431500   292.65444      223.33982     -2336.0876     -1959.3658    
   2432000   308.50405      322.51957     -2340.723      -1944.0999    
   2432500   296.19045      2057.7798     -2284.2618     -1905.0012    
   2433000   293.74502      829.44873     -2318.9476     -1941.1716    
   2433500   298.07258      1813.2474     -2319.5873     -1937.7314    
   2434000   309.03205      1185.6415     -2308.4018     -1911.8976    
   2434500   306.91321      532.79475     -2299.7767     -1904.9377    
   2435000   306.19454      153.70145     -2333.5382     -1939.6692    
   2435500   292.32984      2134.548      -2291.4335     -1915.2722    
   2436000   314.58787      170.00255     -2295.2837     -1889.6156    
   2436500   304.22109      423.97377     -2329.7087     -1936.6259    
   2437000   303.35869     -90.100838     -2344.3619     -1955.1621    
   2437500   307.22047      801.24539     -2301.4718     -1906.8551    
   2438000   306.55396     -107.59634     -2297.1849     -1903.2442    
   2438500   303.48033      2482.2463     -2313.2636     -1924.7554    
   2439000   284.17229      1805.4103     -2346.9912     -1981.9842    
   2439500   286.63204      779.67875     -2330.7832     -1963.8777    
   2440000   290.15757      474.70861     -2299.2775     -1926.8053    
   2440500   324.86058      1072.7112     -2321.0315     -1902.3829    
   2441000   283.21099      947.74161     -2320.7497     -1956.6352    
   2441500   303.64659      670.06897     -2304.8177     -1912.9048    
   2442000   302.74117     -48.739592     -2298.0989     -1909.8493    
   2442500   305.38921      463.18957     -2338.3318     -1944.2787    
   2443000   286.89526     -353.25824     -2323.2756     -1953.7063    
   2443500   303.9251       44.532676     -2294.7128     -1903.4249    
   2444000   293.50014      204.53609     -2304.5848     -1926.1872    
   2444500   289.08114      2450.2945     -2336.7222     -1964.364     
   2445000   296.62224      1709.7514     -2326.9295     -1942.7893    
   2445500   308.78227      1312.2556     -2312.2201     -1913.8316    
   2446000   304.36373      119.31836     -2309.3197     -1916.7461    
   2446500   296.29292     -145.21096     -2347.198      -1963.4696    
   2447000   300.43141     -142.23861     -2341.6358     -1954.8297    
   2447500   304.91004      1205.3784     -2299.1228     -1904.2737    
   2448000   282.96628     -151.00986     -2296.9083     -1930.4121    
   2448500   293.85701      1213.9476     -2336.6876     -1957.4413    
   2449000   313.31399      448.99839     -2341.0936     -1936.7861    
   2449500   308.36175      954.92259     -2314.1963     -1917.0288    
   2450000   292.76974      200.5857      -2340.0402     -1962.2415    
   2450500   308.84128      1399.1646     -2333.3538     -1934.1429    
   2451000   322.62831      1199.0837     -2308.7624     -1892.6208    
   2451500   278.96428      1169.5982     -2293.2636     -1932.3184    
   2452000   298.23082     -95.72957      -2337.9787     -1951.9064    
   2452500   299.34025      1897.5814     -2284.1318     -1896.7559    
   2453000   285.17142      1790.3227     -2302.6754     -1936.556     
   2453500   286.85564     -584.04096     -2309.5481     -1940.7133    
   2454000   305.07163      1621.4009     -2320.9632     -1928.4973    
   2454500   275.68271     -157.74375     -2340.5902     -1984.5559    
   2455000   298.44931      644.02617     -2332.1406     -1946.7825    
   2455500   293.51578      577.58937     -2301.3109     -1923.0698    
   2456000   288.71285      1787.5037     -2318.8882     -1946.2589    
   2456500   293.4467       860.81948     -2348.6607     -1970.7144    
   2457000   301.11774      228.18649     -2319.4564     -1932.7131    
   2457500   294.07738      2028.623      -2296.066      -1916.9616    
   2458000   288.77529      1075.8656     -2336.4844     -1963.6418    
   2458500   285.83477      1242.3505     -2311.7467     -1942.1931    
   2459000   290.40833      1782.9901     -2292.7414     -1919.3488    
   2459500   290.54846      469.39163     -2298.9083     -1924.0396    
   2460000   316.42375     -653.19206     -2304.526      -1897.7124    
   2460500   307.81874      872.30494     -2331.9046     -1936.6444    
   2461000   304.3156       1934.803      -2337.3353     -1946.3981    
   2461500   304.41409      653.78253     -2276.9227     -1884.6338    
   2462000   302.88622      2058.7339     -2286.5277     -1897.7117    
   2462500   283.34844      438.41096     -2306.0754     -1939.4742    
   2463000   308.41819      13.086008     -2309.9775     -1913.6619    
   2463500   324.31726      2418.5598     -2280.5891     -1863.298     
   2464000   296.54362      1715.1917     -2307.1748     -1925.9684    
   2464500   295.9736      -461.46323     -2324.3099     -1944.5351    
   2465000   310.22681      1203.9093     -2322.8264     -1923.9315    
   2465500   297.87822      961.24705     -2277.9937     -1894.9314    
   2466000   309.54512      863.62284     -2278.5071     -1881.964     
   2466500   314.11105      1419.4299     -2337.2038     -1933.1113    
   2467000   303.31984      817.08521     -2343.43       -1953.1385    
   2467500   301.12302      1675.0576     -2277.2661     -1889.7735    
   2468000   313.53681      644.52383     -2328.7884     -1926.2571    
   2468500   307.7545       2263.5652     -2341.5419     -1945.2987    
   2469000   304.56889      2102.1717     -2305.1378     -1913.2834    
   2469500   328.98691      1815.3218     -2287.8907     -1865.2226    
   2470000   314.15977     -380.27        -2316.3358     -1911.1584    
   2470500   302.07034      2807.0399     -2335.5052     -1945.4142    
   2471000   294.33284      977.00103     -2338.9894     -1960.2469    
   2471500   306.69681      1961.3192     -2305.2875     -1909.3079    
   2472000   306.85313      2201.7075     -2277.5871     -1880.7572    
   2472500   305.97615      1342.8295     -2318.375      -1923.6461    
   2473000   294.38586      516.26873     -2315.1223     -1934.851     
   2473500   295.37222     -1118.0549     -2354.7097     -1974.5531    
   2474000   300.78399      1063.2401     -2306.2531     -1921.1036    
   2474500   318.57783      931.79316     -2307.8352     -1898.4972    
   2475000   299.17533      209.6827      -2333.7479     -1948.4081    
   2475500   292.29854      554.47285     -2320.106      -1942.1441    
   2476000   315.4829       1770.3949     -2309.769      -1904.6444    
   2476500   321.47571      412.99187     -2302.7903     -1887.7042    
   2477000   283.14882     -1906.9291     -2292.0067     -1927.1898    
   2477500   319.21205     -425.25862     -2328.6432     -1916.9376    
   2478000   307.40297      1527.6801     -2284.1685     -1887.4746    
   2478500   300.04629      1703.8063     -2316.1318     -1928.6315    
   2479000   303.81868      1333.5323     -2335.7098     -1943.7265    
   2479500   323.6591       587.4439      -2296.3865     -1878.949     
   2480000   284.09878      618.41518     -2292.1535     -1927.3839    
   2480500   291.24187      1151.6516     -2304.0151     -1927.9831    
   2481000   303.06245      1870.4969     -2306.5256     -1915.5721    
   2481500   278.98673      304.73208     -2302.1324     -1942.501     
   2482000   294.31338      1367.4402     -2277.8418     -1898.1986    
   2482500   298.39685      1391.7932     -2312.2498     -1927.0886    
   2483000   302.80189      95.72944      -2334.0717     -1943.1206    
   2483500   307.88373      505.26673     -2296.6477     -1897.8249    
   2484000   290.51853      131.05943     -2308.9847     -1933.5806    
   2484500   285.84316      941.50127     -2320.143      -1951.5096    
   2485000   299.2994       1272.056      -2290.5848     -1902.9796    
   2485500   305.84149      871.61456     -2303.1924     -1908.726     
   2486000   310.8682       2081.912      -2329.8548     -1928.8783    
   2486500   284.02666      2543.9783     -2286.9317     -1922.0172    
   2487000   304.89402      903.13038     -2270.266      -1878.1227    
   2487500   296.6829       1294.9916     -2307.0451     -1924.8113    
   2488000   300.43477      1646.5014     -2335.9257     -1946.8882    
   2488500   311.32752     -451.26771     -2309.08       -1907.5888    
   2489000   309.66881      1272.5121     -2308.108      -1909.5497    
   2489500   308.05158      1470.4591     -2329.1433     -1933.0469    
   2490000   296.54675      1798.5928     -2315.245      -1931.1141    
   2490500   310.07346      675.8463      -2288.8716     -1888.7657    
   2491000   326.18157      458.55673     -2254.1521     -1833.3689    
   2491500   313.70776      497.82508     -2310.7072     -1905.9726    
   2492000   290.69952      1675.5856     -2329.6297     -1954.1202    
   2492500   297.50596     -498.24491     -2310.8409     -1926.7323    
   2493000   308.75495      170.47414     -2295.4684     -1896.7135    
   2493500   301.10002     -77.213847     -2316.9587     -1928.5058    
   2494000   296.22341      881.22787     -2348.5405     -1965.5062    
   2494500   301.75044      1454.9317     -2310.9446     -1921.1641    
   2495000   308.00005      299.23224     -2323.791      -1926.1834    
   2495500   291.07129     -336.58749     -2336.9192     -1961.9196    
   2496000   281.82812      894.99659     -2352.4577     -1988.5775    
   2496500   287.40981      2507.0122     -2304.0502     -1933.4538    
   2497000   282.95563      1717.6572     -2284.2098     -1919.3306    
   2497500   280.49598      2839.6919     -2325.3486     -1963.5868    
   2498000   291.60902     -270.41159     -2302.5012     -1924.9857    
   2498500   321.53109     -703.57544     -2343.2997     -1927.2399    
   2499000   297.06288      2504.9695     -2341.5605     -1957.7952    
   2499500   291.48573      1052.9143     -2382.2291     -2004.8446    
   2500000   297.0515       343.16118     -2334.1961     -1950.5938    
Loop time of 4325.6 on 16 procs for 2500000 steps with 650 atoms

Performance: 99.870 ns/day, 0.240 hours/ns, 577.954 timesteps/s
88.7% CPU use with 16 MPI tasks x no OpenMP threads

MPI task timing breakdown:
Section |  min time  |  avg time  |  max time  |%varavg| %total
---------------------------------------------------------------
Pair    | 1039.9     | 1178.6     | 1325.3     | 238.9 | 27.25
Bond    | 1.3078     | 1.4785     | 1.9731     |  12.3 |  0.03
Kspace  | 1090       | 1233.4     | 1373.2     | 232.0 | 28.51
Neigh   | 118.83     | 119.34     | 119.75     |   2.7 |  2.76
Comm    | 636.06     | 638.84     | 641.72     |   6.2 | 14.77
Output  | 3.1514     | 3.1631     | 3.216      |   0.8 |  0.07
Modify  | 1100.5     | 1104.8     | 1107.4     |   6.0 | 25.54
Other   |            | 46.03      |            |       |  1.06

Nlocal:         40.625 ave          48 max          34 min
Histogram: 2 1 3 0 2 3 0 3 0 2
Nghost:        3271.75 ave        3319 max        3231 min
Histogram: 1 2 2 3 2 0 3 1 0 2
Neighs:        15458.8 ave       17317 max       12542 min
Histogram: 1 0 2 2 0 2 1 3 3 2

Total # of neighbors = 247340
Ave neighs/atom = 380.52308
Ave special neighs/atom = 1.9938462
Neighbor list builds = 198717
Dangerous builds = 22397

write_data  end.data                                   # write a lammps.data file with the final configuration, can be used to start new simulations
System init for write_data ...
PPPM initialization ...
  using 12-bit tables for long-range coulomb (../kspace.cpp:342)
  G vector (1/distance) = 0.30520329
  grid = 16 16 16
  stencil order = 5
  estimated absolute RMS force accuracy = 0.0030333252
  estimated relative force accuracy = 9.1347686e-06
  using double precision KISS FFT
  3d grid and FFT values/proc = 2475 256
Generated 5 of 6 mixed pair_coeff terms from arithmetic mixing rule
WARNING: Not all mixed pair coeffs generated from mixing. Use write_data with 'pair ij' option to store all pair coeffs. (../write_data.cpp:309)
Total wall time: 1:12:05
