LAMMPS (23 Jun 2022)
#LAMMPS init file for NaCl dissociation in water
# ------------------------------- Initialization Section --------------------
units        real                            # A, fs, Kcal/mol
atom_style   full                            # Accepts positions, masses, bonds, angles, charges
pair_style lj/charmm/coul/long 9.0 10.0      # Classical LJ style potential + coulomb interaction with two cutoffs
bond_style  harmonic                         # Uses an harmonic potential around an equilibrium value for bonds
angle_style harmonic                         # Uses an harmonic potential around an equilibrium value for angles

# ------------------------------- Atom Definition Section -------------------
read_data    "../NaCl_216wat.data"           # Read from file the positions, masses, velocities, bonds and charges of the atoms
Reading data file ...
  orthogonal box = (0.12622049 0.12622049 0.12622049) to (18.47378 18.47378 18.47378)
  2 by 2 by 4 MPI processor grid
  reading atoms ...
  650 atoms
  reading velocities ...
  650 velocities
  scanning bonds ...
  2 = max bonds/atom
  scanning angles ...
  1 = max angles/atom
  reading bonds ...
  432 bonds
  reading angles ...
  216 angles
Finding 1-2 1-3 1-4 neighbors ...
  special bond factors lj:    0        0        0       
  special bond factors coul:  0        0        0       
     2 = max # of 1-2 neighbors
     1 = max # of 1-3 neighbors
     1 = max # of 1-4 neighbors
     2 = max # of special neighbors
  special bonds CPU = 0.001 seconds
  read_data CPU = 0.025 seconds

group wat type  1  2                         # Define a group for the water molecules (types 1=O, 2=H)
648 atoms in group wat

# ------------------------------- Settings Section --------------------------

### TIP3P Potential Parameters --> Water ###
set type 1 charge -0.834                     # Set charge for O
Setting atom values ...
  216 settings made for charge
set type 2 charge  0.417                     # Set charge for H
Setting atom values ...
  432 settings made for charge
pair_coeff 1 1 0.1521 3.1507                 # Set O interaction parameters
pair_coeff 2 2 0.0460 0.4000                 # Set H interaction parameters
pair_coeff 1 2 0.0836 1.7753                 # Set O-H interaction parameters
bond_coeff  1 450 0.9572                     # Set O-H bond parameters
angle_coeff 1 55 104.52                      # Set H-O-H angle parameters
kspace_style pppm 1.0e-5                     # final npt relaxation
pair_coeff 3 3  0.3526418 2.1595384928       # Set Na interaction parameters
pair_coeff 4 4   0.0127850  4.8304528498     # Set Cl interaction parameter

# ------------------------------- Run Section -------------------------------

# The dump command is used to print output, here: atom-id, molecule-id, lammps-type, xyz coord, image-xyz (for PBC box)
dump         1 all custom 500 traj_biased_dist.lammpstrj id mol type x y z ix iy iz

timestep     2.0                                       # fs

# The fix command is used to act on your system
fix          fxnvt all nvt temp 300.0 300.0 500.0      # 300K Nose-Hoover thermostat to sample the NVT canonical ensemble, tau = 500*dt
fix pl all plumed plumedfile plumed.dat outfile p.log  # Make LAMMPS aware that we want to use PLUMED! Load the plumed.dat input file
fix fRattleWat wat rattle 0.0001 10 0 b 1 a 1        # Fix bonds and angles of water molecules, allow to use longer dt and it's fine for us
       0 = # of size 2 clusters
       0 = # of size 3 clusters
       0 = # of size 4 clusters
     216 = # of frozen angles
  find clusters CPU = 0.001 seconds

# The thermo command computes the thermodynamic quantities we may be interested in, can specify which ones with thermo_style
thermo         500                                       # compute and print on screen every 500dt
thermo_style   custom step temp press epair etotal

run            2500000                                    # run the simualtion for N steps
PPPM initialization ...
  using 12-bit tables for long-range coulomb (../kspace.cpp:342)
  G vector (1/distance) = 0.30520329
  grid = 16 16 16
  stencil order = 5
  estimated absolute RMS force accuracy = 0.0030333252
  estimated relative force accuracy = 9.1347686e-06
  using double precision KISS FFT
  3d grid and FFT values/proc = 2475 256
Generated 5 of 6 mixed pair_coeff terms from arithmetic mixing rule
Neighbor list info ...
  update every 1 steps, delay 10 steps, check yes
  max neighbors/atom: 2000, page size: 100000
  master list distance cutoff = 12
  ghost atom cutoff = 12
  binsize = 6, bins = 4 4 4
  1 neighbor lists, perpetual/occasional/extra = 1 0 0
  (1) pair lj/charmm/coul/long, perpetual
      attributes: half, newton on
      pair build: half/bin/newton
      stencil: half/bin/3d
      bin: standard
Per MPI rank memory allocation (min/avg/max) = 9.608 | 9.611 | 9.613 Mbytes
   Step          Temp          Press          E_pair         TotEng    
         0   306.42593     -1862.5084     -2545.2648     -2149.7637    
       500   319.952        800.90125     -2342.575      -1932.0059    
      1000   299.66542      1130.495      -2319.4911     -1935.1058    
      1500   310.18319      2287.0449     -2301.0578     -1901.0093    
      2000   298.88398      3165.8712     -2273.6598     -1890.0041    
      2500   296.40212     -527.81944     -2316.7249     -1936.1034    
      3000   302.37205      35.196066     -2330.2603     -1941.4231    
      3500   313.02042      1719.7722     -2286.8735     -1882.5382    
      4000   298.34041      600.48512     -2312.8142     -1929.0182    
      4500   296.07696      1525.2545     -2323.8668     -1942.9337    
      5000   277.85657      336.45372     -2340.2538     -1983.0555    
      5500   285.76773      418.22096     -2283.2572     -1915.0375    
      6000   304.41452     -282.09787     -2313.6471     -1921.3317    
      6500   295.59236      2724.5607     -2342.7519     -1963.6236    
      7000   294.16522     -220.00653     -2335.9308     -1958.6445    
      7500   296.48329     -96.216942     -2289.819      -1909.4138    
      8000   294.90008     -327.37234     -2317.8029     -1939.5681    
      8500   309.43067      7.3680321     -2355.5592     -1958.1021    
      9000   302.42002      1788.7188     -2307.9324     -1919.141     
      9500   333.28952      568.28673     -2288.4579     -1859.4774    
     10000   291.53089      1084.7199     -2294.1566     -1919.2869    
     10500   281.97646      686.09583     -2312.6802     -1949.3804    
     11000   314.49074      1278.2396     -2309.7625     -1904.5753    
     11500   306.61511      859.88851     -2296.8211     -1901.6591    
     12000   283.49356      895.57265     -2292.1002     -1926.6044    
     12500   305.28222      1009.7072     -2335.4251     -1943.456     
     13000   292.18131      1249.5163     -2346.9381     -1972.2125    
     13500   320.8665       1648.8517     -2349.9183     -1936.7347    
     14000   291.24295      549.55613     -2299.3283     -1924.318     
     14500   303.16208      2794.4195     -2262.6266     -1872.78      
     15000   305.65139      1271.8344     -2254.9398     -1861.4376    
     15500   305.69999      393.85387     -2312.6799     -1918.2529    
     16000   283.36808      1586.2511     -2307.4456     -1941.6162    
     16500   284.5969       194.95847     -2336.9375     -1969.7054    
     17000   301.55191     -388.38333     -2312.0817     -1923.7129    
     17500   300.97411      616.54822     -2300.6543     -1912.7549    
     18000   313.04936      1392.3351     -2354.6357     -1951.1263    
     18500   271.46339     -1286.1703     -2358.0707     -2007.8364    
     19000   310.45208      1001.1361     -2352.7856     -1952.2761    
     19500   304.89226      1616.3836     -2312.3793     -1918.9194    
     20000   307.84654      2478.3774     -2308.6375     -1911.6906    
     20500   294.2023       1394.8613     -2332.7415     -1953.6389    
     21000   292.18849      179.95147     -2295.5317     -1918.4005    
     21500   291.91247      1211.5562     -2281.673      -1904.9733    
     22000   301.62685      913.78532     -2338.9392     -1949.5079    
     22500   290.1034      -214.31196     -2324.9629     -1950.4929    
     23000   284.61761      2040.39       -2315.9868     -1948.4151    
     23500   293.54326      2454.8118     -2359.1333     -1980.7851    
     24000   280.35105      62.602702     -2333.6129     -1971.999     
     24500   299.19445      830.91385     -2318.4955     -1932.2245    
     25000   316.9462      -406.28221     -2316.9745     -1907.8925    
     25500   279.82508      1648.4748     -2313.9536     -1953.4524    
     26000   302.58388      808.56989     -2315.3231     -1925.4922    
     26500   301.12651      1159.8591     -2304.738      -1916.2997    
     27000   274.43711      599.23298     -2292.8332     -1939.4546    
     27500   276.47577     -28.447264     -2343.3688     -1986.5957    
     28000   302.11853      759.02442     -2323.8429     -1933.8134    
     28500   316.19262      1219.4647     -2310.5062     -1904.0711    
     29000   317.30816      1255.5183     -2327.6242     -1918.4959    
     29500   283.5507       589.13192     -2307.7467     -1942.2135    
     30000   318.14235      808.77764     -2322.6574     -1911.7045    
     30500   300.68954     -853.67512     -2348.7545     -1960.6684    
     31000   279.84961      1755.4053     -2293.3201     -1932.6142    
     31500   313.55531      857.45085     -2310.7957     -1908.4828    
     32000   283.64855      746.82823     -2307.4245     -1943.4609    
     32500   292.68302      630.00153     -2356.1043     -1980.5727    
     33000   295.23255      917.19441     -2308.9803     -1929.5752    
     33500   303.04199      553.56421     -2308.1421     -1918.5244    
     34000   294.0523       2636.8586     -2304.5105     -1926.3085    
     34500   298.61074      1523.849      -2343.2185     -1958.8823    
     35000   299.85179      501.85729     -2289.8713     -1904.7862    
     35500   299.10456      733.63306     -2283.9398     -1898.8666    
     36000   314.27607     -179.00584     -2340.5925     -1936.8413    
     36500   272.75739      1268.9519     -2343.7481     -1992.4826    
     37000   307.63785      1993.3369     -2355.5419     -1959.0046    
     37500   307.31547      456.32041     -2332.5023     -1936.3091    
     38000   267.85415      1806.8498     -2301.4988     -1957.2532    
     38500   298.52253      1075.3158     -2303.5422     -1918.3193    
     39000   304.86904      1591.9585     -2301.2181     -1907.5606    
     39500   283.85382      741.24628     -2322.2801     -1956.5522    
     40000   286.28516      1535.8206     -2334.6531     -1966.1829    
     40500   319.55774      477.25855     -2323.7788     -1911.6432    
     41000   284.86906      1794.5721     -2292.6856     -1924.9597    
     41500   306.26746      1482.9844     -2359.4895     -1965.0591    
     42000   292.93421      2317.3885     -2366.7323     -1989.9242    
     42500   290.65359      229.41131     -2319.4817     -1944.4265    
     43000   294.56111     -64.447948     -2301.0791     -1921.2238    
     43500   316.33985      1641.576      -2286.8523     -1878.6258    
     44000   298.34694      1081.738      -2325.1163     -1939.9949    
     44500   289.33557      797.75028     -2322.8775     -1949.9662    
     45000   300.72935      2546.7346     -2313.458      -1925.0474    
     45500   318.13525      1670.4527     -2320.5275     -1909.9289    
     46000   302.47076      1223.2947     -2345.0128     -1955.8159    
     46500   307.37379     -55.131737     -2322.4886     -1925.6906    
     47000   305.12796      1610.9645     -2263.1334     -1870.7287    
     47500   314.30418      1384.916      -2318.9244     -1913.9015    
     48000   299.33951      440.3706      -2325.3025     -1940.0678    
     48500   314.95346      1612.3457     -2308.9113     -1902.3464    
     49000   306.25701      2653.4986     -2293.4996     -1898.5841    
     49500   278.57636     -305.87578     -2304.6673     -1945.5062    
     50000   303.00207     -447.93821     -2325.0866     -1934.2494    
     50500   302.57265      836.38306     -2295.5583     -1904.7391    
     51000   283.94497      1326.495      -2326.5778     -1959.9559    
     51500   322.64881      113.22571     -2341.7054     -1925.0582    
     52000   316.36366      1085.0746     -2287.2322     -1879.0667    
     52500   331.10992      1736.2823     -2326.3399     -1898.7994    
     53000   299.57819     -122.10973     -2336.5102     -1949.5011    
     53500   295.5306       958.81534     -2294.426      -1912.5533    
     54000   307.5445       714.34447     -2311.75       -1914.8631    
     54500   289.2689       198.82526     -2301.1584     -1928.2996    
     55000   300.43961      887.41489     -2310.0221     -1922.7502    
     55500   288.9452       1011.9923     -2316.2302     -1943.3108    
     56000   307.34666      811.62812     -2309.4182     -1912.9169    
     56500   304.42339      470.97145     -2293.1766     -1900.5626    
     57000   286.02        -323.73221     -2313.3463     -1944.5931    
     57500   299.63034      223.39365     -2304.988      -1918.8871    
     58000   291.93689      1309.4938     -2286.3862     -1909.2852    
     58500   292.34536     -596.15583     -2338.289      -1960.5938    
     59000   321.20806      8.0908413     -2333.9079     -1919.3946    
     59500   300.21894      1025.7496     -2289.2203     -1901.244     
     60000   282.51158      762.26746     -2309.6205     -1944.9108    
     60500   284.54261     -201.9003      -2314.068      -1946.4337    
     61000   299.2822       832.80848     -2319.3289     -1933.5267    
     61500   307.0269       311.44758     -2281.4351     -1884.6635    
     62000   327.41579      614.46756     -2315.6911     -1893.4375    
     62500   294.13585      21.934629     -2314.602      -1935.1435    
     63000   312.11912      668.08833     -2304.0318     -1901.1798    
     63500   309.74588      1401.4963     -2299.9482     -1900.2767    
     64000   296.90987      458.39879     -2313.6663     -1930.7625    
     64500   296.75328      1631.6132     -2330.1806     -1947.3028    
     65000   305.49433      1352.2294     -2289.1255     -1894.9978    
     65500   320.55888      2129.2978     -2340.6451     -1927.1538    
     66000   304.19623      1450.2345     -2332.6863     -1940.0904    
     66500   290.26409      933.00101     -2258.7419     -1884.0848    
     67000   324.48954      1194.4538     -2333.9968     -1915.3337    
     67500   301.25888      1101.2593     -2333.6493     -1945.3694    
     68000   320.33704      554.59368     -2322.7721     -1909.6333    
     68500   316.68155      1026.0445     -2284.4133     -1876.0073    
     69000   294.08335      751.19341     -2313.0811     -1933.4808    
     69500   300.3601       1477.1134     -2339.2263     -1951.8265    
     70000   279.92622      444.35245     -2324.8008     -1963.467     
     70500   312.82179      1356.2187     -2316.5088     -1912.7393    
     71000   302.58922      941.88198     -2328.3309     -1938.1632    
     71500   284.61317      1276.8001     -2334.731      -1967.5069    
     72000   279.73638      2052.2461     -2286.2422     -1925.2232    
     72500   304.19819      1484.7846     -2290.4071     -1898.3372    
     73000   296.31023      1121.4397     -2335.5343     -1952.9412    
     73500   309.18985      111.23171     -2319.6944     -1920.218     
     74000   308.12666      1062.4008     -2305.0149     -1906.9164    
     74500   289.33138      117.89732     -2336.9449     -1963.2449    
     75000   305.78999      103.66193     -2351.9254     -1956.8989    
     75500   283.74007      2802.3263     -2300.3542     -1934.4016    
     76000   313.19204      1549.1185     -2328.2732     -1923.9974    
     76500   309.56727      1944.367      -2330.0139     -1930.4701    
     77000   301.24076     -49.191582     -2365.8781     -1976.9299    
     77500   305.48835      833.78825     -2335.783      -1941.5698    
     78000   292.55806      428.47887     -2302.6021     -1924.9167    
     78500   297.20683      871.59704     -2269.0624     -1885.6211    
     79000   285.06159      1197.0853     -2303.7365     -1935.7967    
     79500   286.05501      1295.4071     -2331.4862     -1962.2674    
     80000   306.33966      2640.1424     -2320.2961     -1924.8271    
     80500   295.1575       690.98091     -2287.8068     -1906.7447    
     81000   295.79605      991.68572     -2285.9408     -1903.9775    
     81500   291.62628      1239.8915     -2324.3783     -1947.8368    
     82000   315.3697       984.08412     -2309.3493     -1902.0821    
     82500   299.40942      1637.252      -2284.4113     -1897.7526    
     83000   309.62419     -695.42226     -2342.9292     -1943.2601    
     83500   302.34283      1977.3006     -2333.9381     -1943.8124    
     84000   290.62164      2305.9699     -2309.0701     -1934.4359    
     84500   292.7048       85.345032     -2287.0415     -1909.5766    
     85000   320.7418       2179.4057     -2264.0928     -1851.1415    
     85500   314.96574      847.37095     -2309.2042     -1903.3184    
     86000   299.22405      2103.3952     -2318.722      -1932.4096    
     86500   283.50724      1246.9236     -2327.8413     -1961.5508    
     87000   288.71727      2835.8998     -2334.1237     -1961.8872    
     87500   296.09451      1308.8665     -2293.4746     -1911.8301    
     88000   307.1878       513.96049     -2314.4882     -1918.3509    
     88500   282.84526      2227.5505     -2332.5453     -1967.7756    
     89000   305.90363      1034.2181     -2315.3565     -1920.757     
     89500   295.08019      651.0642      -2307.7955     -1926.9798    
     90000   290.28063      1366.4406     -2306.6281     -1931.981     
     90500   316.215        2752.9348     -2306.9102     -1898.7896    
     91000   287.96661      1136.24       -2320.6896     -1948.7991    
     91500   308.47007     -693.24346     -2322.8252     -1924.6269    
     92000   299.53153      926.61998     -2314.7675     -1928.1931    
     92500   304.54839      291.80533     -2323.4307     -1930.3497    
     93000   302.57869      1118.2332     -2314.3557     -1923.7401    
     93500   276.57345      990.51464     -2288.3122     -1931.0523    
     94000   305.61085      374.43965     -2290.4271     -1895.8389    
     94500   318.81386      850.90782     -2290.3741     -1878.5878    
     95000   301.17125      2386.4266     -2308.2404     -1919.3636    
     95500   273.63337      1919.7946     -2300.8477     -1947.3184    
     96000   312.77238      2795.6224     -2301.9241     -1898.7664    
     96500   290.8686       616.00363     -2285.0266     -1909.298     
     97000   299.68772      1489.4675     -2336.3252     -1949.2246    
     97500   291.03019     -188.28334     -2305.4726     -1931.3876    
     98000   288.65361      225.43976     -2318.9164     -1947.6668    
     98500   282.65866     -38.133238     -2335.7873     -1970.5887    
     99000   298.89511      2913.9253     -2314.5556     -1928.379     
     99500   310.4403       483.26333     -2313.1853     -1913.8067    
    100000   276.94122      805.16033     -2334.8629     -1977.687     
    100500   305.50127     -170.58674     -2332.4967     -1939.2044    
    101000   309.70357      2018.0559     -2313.2113     -1913.4573    
    101500   298.46014      344.13021     -2320.2028     -1936.3359    
    102000   299.24071      2004.5466     -2334.1502     -1947.7914    
    102500   305.78868      916.86842     -2289.8104     -1894.985     
    103000   317.30457      1162.0129     -2335.2406     -1925.2987    
    103500   310.04882      957.67117     -2337.1887     -1936.5928    
    104000   303.342        986.89511     -2313.2094     -1921.3264    
    104500   305.76008      253.81994     -2288.4718     -1893.6997    
    105000   311.11227     -1006.1942     -2284.6388     -1883.3879    
    105500   299.8952       1019.6439     -2317.59       -1930.8712    
    106000   293.40683      555.82412     -2325.2552     -1946.5398    
    106500   293.49507      936.41687     -2347.3213     -1968.5899    
    107000   300.4311       273.61151     -2303.5404     -1916.1913    
    107500   321.997       -168.69143     -2339.2774     -1923.9104    
    108000   280.3235       1157.1265     -2330.4697     -1968.647     
    108500   310.09141      832.57994     -2322.3535     -1922.0463    
    109000   301.72221      1655.0417     -2304.7044     -1915.4857    
    109500   288.26409      51.214525     -2332.5176     -1960.377     
    110000   311.96527      1721.0945     -2322.6682     -1920.3195    
    110500   297.40186      664.82671     -2294.7376     -1911.2478    
    111000   289.40496     -470.70622     -2324.6655     -1951.479     
    111500   278.55433      1928.0612     -2327.9415     -1967.9911    
    112000   310.67151      702.12826     -2337.4308     -1937.1128    
    112500   334.68361      522.64997     -2315.3827     -1884.1429    
    113000   307.27764      732.08522     -2295.3059     -1898.992     
    113500   285.22645      2686.2739     -2295.449      -1927.4788    
    114000   297.53282     -177.76623     -2317.8322     -1934.1722    
    114500   304.68408      1495.0709     -2277.702      -1885.4485    
    115000   303.54119     -908.0899      -2320.6602     -1929.045     
    115500   310.64021      1083.0589     -2319.2863     -1918.4138    
    116000   312.09181      1072.5888     -2283.4487     -1880.8429    
    116500   288.02682      3499.8213     -2298.9694     -1928.1046    
    117000   298.83995      609.96946     -2318.0088     -1931.8095    
    117500   307.97679      389.24692     -2296.9895     -1899.0819    
    118000   296.78725      57.387059     -2335.0615     -1952.2394    
    118500   287.01662      1002.4595     -2299.5508     -1929.3611    
    119000   306.74894      1100.4258     -2309.2239     -1913.2887    
    119500   290.92359     -336.85796     -2285.8133     -1910.23      
    120000   309.03269      1510.7775     -2272.1224     -1873.1097    
    120500   298.07111      928.26633     -2307.2117     -1922.4102    
    121000   301.79126      1855.5557     -2349.5679     -1960.2114    
    121500   278.44967      692.16424     -2298.1289     -1938.9557    
    122000   291.91819      617.86995     -2288.2943     -1911.3818    
    122500   289.60002      628.04136     -2316.9507     -1943.2494    
    123000   298.71392      1120.8482     -2338.5118     -1952.7896    
    123500   302.937        169.52832     -2288.84       -1897.7161    
    124000   298.93608     -1043.5444     -2321.0094     -1935.557     
    124500   289.06108      98.844672     -2342.6459     -1969.3116    
    125000   299.85963      974.80627     -2291.0648     -1904.234     
    125500   297.41127     -784.61        -2315.4575     -1931.1565    
    126000   299.2772       1183.734      -2322.3852     -1935.6062    
    126500   308.89171      1610.9521     -2286.7807     -1887.5656    
    127000   290.86513      268.54567     -2300.1209     -1924.4039    
    127500   314.29826      909.61773     -2323.4857     -1917.7369    
    128000   297.12392      133.83321     -2339.5323     -1955.904     
    128500   293.57963      2397.9718     -2331.2803     -1952.7228    
    129000   299.46455     -111.41173     -2307.7429     -1921.3682    
    129500   290.14982      244.78128     -2296.486      -1922.266     
    130000   281.21495      743.90171     -2336.8091     -1974.0408    
    130500   285.84402      1882.4548     -2305.8892     -1937.0953    
    131000   291.2963       1520.9649     -2304.3346     -1928.5916    
    131500   304.30084      883.54167     -2324.2744     -1931.391     
    132000   276.55926     -390.10545     -2327.8057     -1970.8263    
    132500   319.16254      1062.8793     -2333.5958     -1921.8082    
    133000   307.4914       1347.1156     -2330.8069     -1934.0718    
    133500   293.59998      2406.1645     -2285.0592     -1906.0164    
    134000   294.89924      629.99035     -2274.5343     -1893.8394    
    134500   296.78619      337.85555     -2327.6573     -1944.3295    
    135000   304.38269      1818.798      -2305.4432     -1912.6038    
    135500   296.43643      1888.2444     -2301.8547     -1919.3213    
    136000   282.15768      1816.3355     -2323.795      -1959.4967    
    136500   308.1088       812.62697     -2309.8847     -1912.065     
    137000   309.71277      1578.28       -2326.669      -1926.7973    
    137500   288.75359      482.82249     -2360.2331     -1987.2845    
    138000   296.40169     -368.7231      -2348.1626     -1965.2775    
    138500   305.28428      893.89511     -2318.6408     -1924.9093    
    139000   300.18428      570.25876     -2313.5355     -1926.0441    
    139500   289.62202      777.6258      -2339.111      -1965.1273    
    140000   307.97544     -663.27406     -2315.4613     -1917.9879    
    140500   308.39677      466.98518     -2316.7362     -1918.3944    
    141000   293.5566       1518.7245     -2345.5624     -1966.5987    
    141500   291.40792      1786.1033     -2324.4102     -1948.6539    
    142000   308.31527      453.01891     -2331.7415     -1933.7227    
    142500   312.48214     -417.86454     -2340.9361     -1937.6126    
    143000   289.08787     -68.157942     -2359.0474     -1985.7023    
    143500   288.65355      767.51257     -2314.5419     -1941.9004    
    144000   309.18124      1585.6383     -2322.0995     -1922.7554    
    144500   314.28236      1295.0045     -2338.4541     -1933.0702    
    145000   287.54289      1752.3292     -2336.549      -1965.2569    
    145500   290.83012      2004.3948     -2282.9273     -1907.3098    
    146000   305.61478      1700.2703     -2302.6818     -1908.2625    
    146500   305.69365      1141.0193     -2359.7135     -1965.096     
    147000   290.90847      368.72621     -2325.4819     -1949.9094    
    147500   289.3299      -1037.8308     -2295.6227     -1921.8896    
    148000   317.48748      2473.8377     -2314.8079     -1905.1483    
    148500   311.07166      502.73516     -2359.1174     -1957.371     
    149000   314.36583      84.754492     -2325.637      -1919.7891    
    149500   301.67221      145.70036     -2289.7335     -1900.674     
    150000   290.07685      909.60053     -2301.6922     -1927.5056    
    150500   283.74881     -291.68997     -2317.2955     -1951.2611    
    151000   309.40768      1016.4769     -2298.6595     -1899.7693    
    151500   299.57769      1620.2535     -2319.4762     -1932.7783    
    152000   299.13774      1677.5873     -2329.6001     -1944.0392    
    152500   299.21699      2233.9831     -2281.1866     -1895.1286    
    153000   292.26264      285.69459     -2315.7391     -1938.8668    
    153500   299.25352      806.49352     -2338.9236     -1952.7186    
    154000   293.63509     -513.74614     -2315.4581     -1936.0951    
    154500   306.68727      1001.6654     -2321.1001     -1925.1084    
    155000   305.13047      1340.193      -2309.4631     -1915.6942    
    155500   298.97725      1141.4655     -2309.7425     -1923.5815    
    156000   303.6291       451.30335     -2345.5242     -1953.8689    
    156500   295.05996     -730.31958     -2336.7745     -1956.1049    
    157000   306.68991      1249.4169     -2303.6092     -1907.6839    
    157500   288.02437     -225.17649     -2308.0503     -1936.1646    
    158000   293.38437      936.31494     -2348.869      -1969.8645    
    158500   296.69402      439.34086     -2312.0693     -1929.1497    
    159000   299.75081      1436.4597     -2311.2006     -1924.1542    
    159500   312.24856      745.99587     -2292.94       -1889.5445    
    160000   302.6499       56.546359     -2300.8649     -1910.0882    
    160500   306.44231      153.3529      -2328.936      -1933.5304    
    161000   295.52623      1024.991      -2287.7532     -1906.3973    
    161500   317.30086      452.76723     -2276.0185     -1866.8048    
    162000   306.29106      990.15716     -2309.835      -1914.2077    
    162500   301.24764      1727.8328     -2296.8504     -1907.8582    
    163000   320.68234      2973.2392     -2314.7987     -1901.6126    
    163500   294.63576      1057.7592     -2333.1641     -1953.1027    
    164000   307.82972      2061.4578     -2310.1831     -1912.9726    
    164500   294.47796      601.12857     -2280.0058     -1899.9592    
    165000   279.51015      881.81425     -2276.7772     -1916.1126    
    165500   290.71808      69.709089     -2346.5794     -1971.1272    
    166000   301.22878     -255.76948     -2323.7848     -1935.0594    
    166500   297.12854      904.83266     -2302.6612     -1919.2949    
    167000   283.06911      1893.9806     -2305.2465     -1939.7602    
    167500   283.40855     -442.74668     -2346.4857     -1980.7206    
    168000   281.7135       1340.305      -2288.1724     -1924.4903    
    168500   300.2857      -37.127494     -2311.6507     -1924.0254    
    169000   294.83686      974.06103     -2343.525      -1962.9037    
    169500   306.32626      491.41347     -2308.378      -1912.9993    
    170000   304.45653      1017.8508     -2297.7457     -1904.4149    
    170500   277.78883      124.72081     -2305.7257     -1947.7821    
    171000   294.37077     -539.78905     -2311.2486     -1931.51      
    171500   305.86696      1706.7793     -2269.2236     -1874.3171    
    172000   287.88099      1156.5872     -2274.6229     -1902.966     
    172500   305.28193      1939.3378     -2312.943      -1918.891     
    173000   298.79397      413.80586     -2312.5896     -1927.1849    
    173500   307.77481      1141.0241     -2318.1747     -1920.5481    
    174000   282.53046      553.27827     -2337.3874     -1972.9473    
    174500   301.35083      432.0616      -2325.888      -1937.0129    
    175000   290.25762      361.86325     -2291.6067     -1916.9374    
    175500   326.20431      790.94156     -2313.2826     -1892.2565    
    176000   306.4531       287.29036     -2298.2374     -1902.409     
    176500   294.03542      1430.968      -2315.8742     -1936.201     
    177000   308.84405      2687.3799     -2288.9891     -1890.2575    
    177500   294.98509      1122.0758     -2288.9039     -1907.8104    
    178000   296.82101      1023.9098     -2317.4801     -1934.5081    
    178500   288.72333      1462.1928     -2319.4856     -1946.8539    
    179000   282.54441      2130.6001     -2337.8983     -1973.1407    
    179500   315.8108       633.13853     -2324.907      -1917.1441    
    180000   293.76505     -51.415815     -2298.0519     -1918.7191    
    180500   290.68124      267.44485     -2344.5523     -1969.1606    
    181000   301.89688      945.33444     -2333.5631     -1943.692     
    181500   284.7197       1493.8311     -2275.2905     -1907.7503    
    182000   302.92876      1623.0513     -2317.452      -1927.0182    
    182500   293.26711      1078.2718     -2337.8805     -1959.4819    
    183000   302.95712      1378.4478     -2323.7238     -1932.9635    
    183500   295.53159      1101.4871     -2292.2968     -1911.2764    
    184000   329.58973      712.06455     -2290.513      -1864.7155    
    184500   285.06279      1570.3977     -2279.106      -1911.2924    
    185000   305.37904      404.13722     -2324.5646     -1931.4439    
    185500   307.95479      962.11887     -2342.7504     -1945.3102    
    186000   279.06287     -134.86051     -2326.0533     -1965.8882    
    186500   302.26424      853.55534     -2302.7246     -1912.4098    
    187000   301.84356      783.39414     -2300.8709     -1910.9932    
    187500   291.76928      733.30353     -2316.0405     -1939.1812    
    188000   300.48428      4287.2214     -2329.1323     -1942.6333    
    188500   289.65445      1833.6903     -2304.6518     -1931.5778    
    189000   311.32069      1786.5284     -2292.5038     -1891.1624    
    189500   284.3103       185.07694     -2308.0333     -1941.3013    
    190000   304.5594       1746.3764     -2321.779      -1928.5469    
    190500   310.2793       714.21266     -2316.0731     -1915.565     
    191000   288.37652      2184.7457     -2340.1614     -1967.6285    
    191500   300.30102      362.44746     -2310.4822     -1922.7417    
    192000   295.84534      586.92746     -2303.4529     -1921.7178    
    192500   277.39436     -601.20009     -2329.3755     -1970.9286    
    193000   302.63475      611.74119     -2312.5103     -1922.2363    
    193500   310.45796      1232.1845     -2310.2211     -1909.8375    
    194000   288.60775      273.34954     -2323.4726     -1951.0161    
    194500   286.58847      410.2149      -2331.5108     -1961.3886    
    195000   313.70536      915.48282     -2304.7635     -1899.7087    
    195500   308.08548      642.37605     -2318.0213     -1920.4017    
    196000   288.24157     -636.31712     -2324.8185     -1952.6464    
    196500   303.56688     -380.98721     -2340.6524     -1948.7012    
    197000   301.97376      51.260711     -2288.7839     -1899.9855    
    197500   291.81704      1388.5111     -2293.7556     -1917.0818    
    198000   291.86728      611.66162     -2333.244      -1956.2066    
    198500   301.23299      1065.119      -2306.4514     -1918.2836    
    199000   309.20078      1672.4662     -2293.7251     -1896.212     
    199500   306.52701      1593.5169     -2336.2775     -1940.2521    
    200000   300.07391     -1218.3571     -2303.9953     -1916.3231    
    200500   317.25581      578.54695     -2307.143      -1898.6454    
    201000   305.9524       107.52911     -2328.6426     -1933.6516    
    201500   324.96967      1013.9735     -2320.2619     -1900.7662    
    202000   295.56547      1902.9656     -2301.3031     -1919.7547    
    202500   305.94076      1040.988      -2338.4382     -1943.1109    
    203000   311.39136      496.62677     -2320.4373     -1918.2625    
    203500   303.06621      474.15095     -2273.2348     -1881.6851    
    204000   303.37987      1919.4607     -2331.1465     -1939.3763    
    204500   311.23984      1458.2658     -2328.3298     -1927.2703    
    205000   317.40833      1968.2037     -2284.8532     -1876.6943    
    205500   305.20159      1150.9358     -2315.3572     -1922.0303    
    206000   296.92035      478.93155     -2305.9461     -1923.9548    
    206500   325.88605      418.19401     -2288.9783     -1868.1374    
    207000   287.01083      2238.1953     -2300.912      -1930.3397    
    207500   280.41629      1637.073      -2301.2501     -1939.1441    
    208000   309.32746      1595.1645     -2300.0612     -1900.3331    
    208500   291.91824     -16.603838     -2263.1034     -1886.0257    
    209000   296.55148     -981.93079     -2320.2721     -1937.2454    
    209500   290.81394     -176.71268     -2301.6149     -1926.2298    
    210000   325.98788      1298.9439     -2297.5205     -1877.1845    
    210500   293.90301      392.32802     -2310.9252     -1931.3618    
    211000   282.73865      478.91687     -2292.1872     -1927.5902    
    211500   303.99071      329.71455     -2296.1757     -1903.7388    
    212000   296.91022      1042.3797     -2311.1448     -1927.8711    
    212500   271.34859      2434.063      -2308.9345     -1958.4184    
    213000   303.7571       2101.071      -2287.3418     -1896.7844    
    213500   293.51925      798.13846     -2313.2224     -1934.0869    
    214000   296.07951      394.76483     -2323.2274     -1940.7888    
    214500   306.99084      1685.1919     -2274.8244     -1879.071     
    215000   307.05082      1426.9119     -2318.5423     -1922.1361    
    215500   279.92461     -777.28424     -2311.2292     -1951.3313    
    216000   312.64172      1458.824      -2328.5915     -1925.3653    
    216500   318.73687      46.407732     -2295.7613     -1885.3141    
    217000   296.0885       2371.5635     -2271.1525     -1889.7277    
    217500   303.43369      734.35249     -2335.4119     -1944.1358    
    218000   286.53619      858.60763     -2315.7976     -1946.2885    
    218500   294.99462      213.67266     -2278.4524     -1898.5909    
    219000   302.72137      709.8604      -2334.9398     -1944.4951    
    219500   284.25309      1874.6736     -2324.9359     -1958.4143    
    220000   303.28107      1725.4396     -2294.8345     -1904.7753    
    220500   297.94854      1061.211      -2308.7441     -1925.3804    
    221000   293.61128      344.40059     -2321.1587     -1943.0036    
    221500   312.06594     -44.710657     -2334.0235     -1931.6118    
    222000   320.68694     -23.64295      -2309.6299     -1896.212     
    222500   279.08743      569.61669     -2304.2499     -1944.485     
    223000   289.52198      1149.5627     -2381.4038     -2008.0779    
    223500   292.23598      538.53608     -2344.9329     -1967.9755    
    224000   297.54041      1605.0805     -2309.6153     -1925.8209    
    224500   305.45578      1332.3052     -2326.6753     -1932.9068    
    225000   291.71774      624.45744     -2351.2261     -1974.9545    
    225500   292.03638      1084.626      -2310.0687     -1933.4103    
    226000   303.4857       359.01539     -2305.2501     -1913.3783    
    226500   317.25861      781.41973     -2284.0339     -1874.5251    
    227000   280.14417      145.8895      -2281.0914     -1919.6944    
    227500   293.56101     -125.22511     -2320.9994     -1942.3859    
    228000   267.68134      939.8835      -2311.359      -1965.9949    
    228500   301.72208      2508.2574     -2306.4111     -1917.4084    
    229000   304.27829      988.70939     -2293.201      -1901.4475    
    229500   277.10663      916.72153     -2312.8942     -1954.8735    
    230000   280.2819       1272.727      -2303.2228     -1941.0245    
    230500   296.26755      1258.8334     -2278.8888     -1896.4412    
    231000   299.58936      1274.8905     -2308.9066     -1922.3152    
    231500   298.01203      626.61367     -2317.6039     -1932.8605    
    232000   307.78916      1239.9897     -2266.6295     -1869.2197    
    232500   300.86062      1309.6326     -2303.3662     -1915.0622    
    233000   279.21631      870.65591     -2304.5187     -1944.1886    
    233500   298.32955      3001.8763     -2300.4263     -1915.3819    
    234000   300.87604      735.13307     -2282.6105     -1894.2417    
    234500   292.70277      2290.5526     -2324.9886     -1946.9666    
    235000   312.60081      2386.172      -2342.7659     -1939.4991    
    235500   312.30371      1582.4341     -2291.6064     -1888.1424    
    236000   299.05316      2427.5774     -2317.9152     -1931.9894    
    236500   292.93929      265.32015     -2338.6452     -1960.6581    
    237000   314.97356      1075.4401     -2322.987      -1916.4764    
    237500   302.81568     -621.63615     -2305.9979     -1915.6215    
    238000   311.30946      1276.0993     -2337.8763     -1936.1554    
    238500   287.54523      588.38795     -2326.086      -1955.0955    
    239000   310.00662      383.09995     -2306.4111     -1906.6827    
    239500   318.37971      759.62069     -2331.8033     -1920.7172    
    240000   295.61732      281.03486     -2357.1784     -1976.5189    
    240500   293.38004      615.3348      -2318.7653     -1939.8626    
    241000   303.88253      1598.6836     -2312.5725     -1920.0762    
    241500   312.41717      925.47571     -2323.0651     -1919.7259    
    242000   288.80351      1375.2423     -2334.7506     -1962.0233    
    242500   319.45035      323.85957     -2326.8323     -1914.5485    
    243000   300.43124      1425.5011     -2305.3923     -1917.7805    
    243500   292.67616      35.129805     -2325.3463     -1947.9464    
    244000   293.46759     -69.045203     -2340.8104     -1962.2107    
    244500   308.05962      1500.2892     -2310.3203     -1912.7371    
    245000   277.97408      752.06439     -2302.0955     -1943.2054    
    245500   284.61394      193.24638     -2361.615      -1994.1218    
    246000   313.96872      810.48989     -2354.2684     -1948.8281    
    246500   310.22421      2420.9316     -2339.6451     -1939.2719    
    247000   282.30805     -1205.9381     -2339.8718     -1975.4019    
    247500   314.65783     -746.31094     -2325.3945     -1919.1264    
    248000   307.63003      614.37865     -2332.3516     -1935.2084    
    248500   274.49385      944.26519     -2313.9053     -1959.6162    
    249000   310.82131      1913.3526     -2304.8723     -1903.4567    
    249500   306.5185       642.0698      -2334.3158     -1938.3711    
    250000   270.83523      1307.6336     -2308.0487     -1958.3997    
    250500   307.60453      445.22146     -2331.5276     -1934.6196    
    251000   285.13025      1941.3302     -2282.5009     -1914.0416    
    251500   297.99909     -80.983075     -2309.8116     -1925.1593    
    252000   297.53845      706.72429     -2344.9134     -1961.2194    
    252500   301.46461      801.08336     -2321.462      -1932.2894    
    253000   306.13347      97.328087     -2297.9407     -1902.4115    
    253500   293.20756      1128.3293     -2314.0539     -1935.6143    
    254000   310.59812     -235.91758     -2285.3684     -1884.6615    
    254500   304.15882      1312.2717     -2318.4889     -1925.7419    
    255000   288.5754       10.617734     -2316.4476     -1943.6625    
    255500   308.1382       1404.4983     -2319.1344     -1921.2894    
    256000   285.26712      1701.6802     -2321.9279     -1953.2746    
    256500   280.57351      36.843573     -2321.2026     -1958.8541    
    257000   306.84697      1048.8945     -2304.9299     -1908.9211    
    257500   294.44143      66.75222      -2303.6837     -1923.5181    
    258000   279.58223      105.65976     -2332.9583     -1972.9294    
    258500   290.63072      1099.9314     -2318.8517     -1944.1645    
    259000   296.92005      751.53131     -2301.2838     -1919.4238    
    259500   317.34267      2698.8462     -2316.739      -1907.7582    
    260000   295.68476      509.39274     -2312.1415     -1930.363     
    260500   300.90078     -650.81281     -2332.8551     -1944.814     
    261000   275.79904      2464.5398     -2302.5941     -1946.3737    
    261500   312.07789      1919.4399     -2317.7445     -1914.5613    
    262000   285.85189      252.40312     -2324.0726     -1954.6898    
    262500   290.02315     -580.2119      -2378.3693     -2003.8695    
    263000   304.16358      327.58922     -2344.1835     -1951.9969    
    263500   290.43183      1268.0756     -2289.7976     -1914.9491    
    264000   334.7891       1327.7794     -2308.1372     -1877.4282    
    264500   312.43316     -112.5673      -2285.5193     -1882.0162    
    265000   302.76465     -468.37386     -2313.6921     -1922.802     
    265500   283.92386      724.39862     -2314.1886     -1947.8381    
    266000   303.40062      2433.1292     -2361.2734     -1969.9469    
    266500   314.79528      1669.2466     -2316.1423     -1909.8407    
    267000   317.09174     -27.565988     -2338.0771     -1928.8564    
    267500   276.38091      791.48654     -2323.8194     -1967.1024    
    268000   310.23712      1227.5282     -2302.1309     -1901.4906    
    268500   307.9589       679.22441     -2326.4691     -1929.0367    
    269000   278.88283      989.13604     -2317.5479     -1957.4703    
    269500   311.382        3034.7118     -2327.8946     -1925.7865    
    270000   291.77872      1589.9857     -2298.4513     -1921.7769    
    270500   304.67797      1309.6254     -2304.3068     -1910.9627    
    271000   311.32103      385.07137     -2348.6559     -1946.7532    
    271500   285.10812      695.21151     -2335.2984     -1967.2276    
    272000   297.10854      1044.2294     -2294.8051     -1911.2949    
    272500   298.71883      823.92921     -2320.5593     -1934.8705    
    273000   281.43717      130.98161     -2322.9624     -1959.6026    
    273500   292.4662       587.40784     -2295.567      -1918.1142    
    274000   280.67629     -330.57652     -2283.6343     -1921.3654    
    274500   283.32787      3505.3706     -2343.063      -1977.3131    
    275000   306.19082      1262.5086     -2355.2969     -1959.8342    
    275500   319.1975       619.50637     -2326.234      -1914.5726    
    276000   311.46686      45.421622     -2322.5197     -1920.9306    
    276500   304.4356       1582.2609     -2326.4317     -1933.7735    
    277000   297.89051      1050.664      -2324.7106     -1940.6013    
    277500   309.82498      2071.3683     -2305.1251     -1904.9958    
    278000   300.52412      986.03125     -2310.4059     -1922.2929    
    278500   298.13417     -189.48729     -2332.8369     -1947.6212    
    279000   310.65195      1553.9799     -2314.1766     -1913.1484    
    279500   312.20819      1479.8557     -2284.4163     -1881.4572    
    280000   307.38874      13.41385      -2313.0868     -1916.2007    
    280500   305.59901      761.60574     -2333.7164     -1939.544     
    281000   312.18134     -77.317212     -2313.6717     -1910.5917    
    281500   303.44444      2036.2387     -2296.7898     -1904.9989    
    282000   290.62666      1796.9378     -2314.3698     -1939.1211    
    282500   304.45469      2200.6484     -2316.2069     -1923.0127    
    283000   308.69386      438.91794     -2273.8899     -1875.3924    
    283500   312.41437      2167.6401     -2327.0497     -1923.798     
    284000   297.5343       729.61517     -2324.298      -1940.117     
    284500   284.86564     -4.9080263     -2335.1439     -1967.3651    
    285000   309.40191      811.6005      -2315.9005     -1916.4542    
    285500   306.11293      1348.4201     -2322.9598     -1927.9583    
    286000   271.36613      1373.003      -2328.1095     -1978.1646    
    286500   293.27801      1910.2142     -2293.2366     -1914.7495    
    287000   302.71153      286.14876     -2326.266      -1935.6936    
    287500   291.65661      756.51723     -2347.5861     -1971.0848    
    288000   314.00232      1401.4363     -2315.5435     -1910.2444    
    288500   307.38984      1480.5822     -2319.0135     -1922.3517    
    289000   290.08666      700.68866     -2331.351      -1957.0471    
    289500   301.08902      1347.8828     -2334.3097     -1945.8976    
    290000   298.43196      797.35923     -2293.1752     -1907.8961    
    290500   316.27226      912.55671     -2307.0341     -1899.0084    
    291000   284.07613      14.321238     -2316.3343     -1949.8349    
    291500   297.62289      1110.3895     -2308.5987     -1924.6907    
    292000   287.5609       2407.5404     -2300.0905     -1929.0465    
    292500   309.40567     -255.62531     -2315.066      -1916.0044    
    293000   293.18411     -901.59608     -2280.3928     -1902.13      
    293500   311.49497      1203.5276     -2323.9085     -1922.1681    
    294000   287.7033       1667.6909     -2331.4663     -1960.437     
    294500   318.63023      0.31840512    -2326.1046     -1914.9426    
    295000   320.26056      1354.2981     -2336.0505     -1922.7383    
    295500   285.29052      269.19888     -2319.542      -1951.2185    
    296000   299.15276      502.69309     -2375.2948     -1988.8855    
    296500   285.4731       784.99859     -2304.3306     -1935.7597    
    297000   297.77622     -25.990283     -2292.5348     -1907.7797    
    297500   300.94106      1376.2277     -2307.4026     -1918.6286    
    298000   288.00087     -193.6876      -2335.9877     -1964.0629    
    298500   293.1858       2792.104      -2293.1934     -1914.6476    
    299000   306.89851      1516.2783     -2318.4381     -1922.1727    
    299500   279.73171     -118.76077     -2331.4352     -1970.4031    
    300000   304.84856      729.79176     -2317.0523     -1923.6366    
    300500   294.83997      739.56677     -2294.8298     -1914.351     
    301000   299.86659      693.19453     -2333.8413     -1946.716     
    301500   295.36467      1065.6191     -2351.7595     -1970.3111    
    302000   315.2181       1554.0742     -2328.8974     -1922.0121    
    302500   303.98136      153.67561     -2292.838      -1900.5584    
    303000   288.43443      2663.5192     -2333.2538     -1960.9123    
    303500   301.69149      1035.4733     -2321.8071     -1932.1674    
    304000   283.46548      1520.4787     -2271.2158     -1905.306     
    304500   287.39846     -1604.9775     -2298.6774     -1927.8237    
    305000   284.93559      724.83646     -2359.6928     -1991.6841    
    305500   298.41948      114.08989     -2349.3245     -1964.107     
    306000   293.8946       992.83919     -2302.409      -1923.0776    
    306500   319.93276     -469.28615     -2314.9121     -1901.914     
    307000   298.82323      929.88323     -2352.6923     -1967.2228    
    307500   299.4487       2237.0251     -2304.4712     -1917.8038    
    308000   289.33472      693.76714     -2299.7842     -1926.076     
    308500   293.79447      447.91763     -2345.6022     -1966.5238    
    309000   297.81502      1485.2191     -2321.4845     -1937.2457    
    309500   300.47012     -326.52329     -2302.4642     -1914.7243    
    310000   288.86699      592.12817     -2337.5786     -1964.6943    
    310500   274.29731      513.99282     -2303.7114     -1949.5041    
    311000   305.01958      144.8115      -2309.0561     -1915.4458    
    311500   305.43408      1526.0257     -2304.9922     -1910.5384    
    312000   295.59152     -69.883781     -2305.4489     -1923.8423    
    312500   321.52194      1583.7925     -2353.6581     -1938.4662    
    313000   311.90208      1341.1979     -2301.5175     -1898.7392    
    313500   299.24776      1141.1914     -2285.4397     -1899.1333    
    314000   283.47244      544.90678     -2302.0835     -1936.0082    
    314500   308.39883      1731.9613     -2298.8079     -1900.7489    
    315000   320.4784       2100.9314     -2284.6887     -1870.7636    
    315500   306.72989      56.298213     -2334.5545     -1938.6661    
    316000   314.79924      1069.481      -2327.3476     -1920.899     
    316500   295.24983      915.0035      -2283.3762     -1902.1988    
    317000   283.02981      1231.6082     -2322.5054     -1957.1229    
    317500   294.88579      547.04383     -2337.905      -1957.2364    
    318000   327.75907      1929.7697     -2330.6434     -1907.2518    
    318500   289.97185      2211.0586     -2310.8363     -1936.2432    
    319000   287.45782      192.11796     -2349.8634     -1978.6286    
    319500   307.84535      2257.8979     -2323.9583     -1926.9585    
    320000   321.59488      1007.0002     -2316.1186     -1900.8103    
    320500   286.17284      965.13343     -2320.8921     -1951.1667    
    321000   301.07318      169.83033     -2310.6419     -1921.6163    
    321500   306.11041      2649.4736     -2299.8705     -1904.8302    
    322000   293.54781      1694.4078     -2343.7779     -1964.7965    
    322500   297.12386     -125.41117     -2319.9779     -1936.3777    
    323000   302.10027      550.60733     -2308.5483     -1918.7619    
    323500   311.15399     -114.72635     -2342.4692     -1941.5988    
    324000   295.56282      1855.4435     -2317.2125     -1936.1843    
    324500   299.24405      2211.7798     -2292.3737     -1907.0439    
    325000   316.06983      1817.1724     -2272.1889     -1864.0414    
    325500   296.27411      484.68334     -2309.1496     -1926.8917    
    326000   294.72618     -204.69843     -2298.8664     -1919.1422    
    326500   271.5136       1339.5229     -2307.6419     -1958.1494    
    327000   288.38638      2398.8493     -2291.7577     -1920.7674    
    327500   315.8893       1492.0091     -2327.0133     -1919.973     
    328000   291.49493      671.51519     -2339.4969     -1963.6411    
    328500   283.73943      212.57583     -2333.0895     -1966.6211    
    329000   295.46029     -77.55907      -2324.1112     -1944.1857    
    329500   281.6763       525.50073     -2325.2949     -1962.4174    
    330000   273.91142      230.93435     -2342.1058     -1988.4114    
    330500   297.06107      1959.0638     -2325.8923     -1942.3158    
    331000   297.06454     -602.8787      -2303.4397     -1919.6952    
    331500   300.48514      518.40075     -2337.4067     -1949.4632    
    332000   311.66261      466.03043     -2366.4356     -1965.4707    
    332500   305.63617     -528.30701     -2305.2599     -1910.5701    
    333000   292.67356     -189.85608     -2324.5319     -1946.7263    
    333500   289.03462      1798.6298     -2317.7833     -1945.7987    
    334000   303.63328      722.56974     -2290.4385     -1898.0972    
    334500   298.19625      1840.0835     -2311.8022     -1926.4947    
    335000   288.03608      542.08051     -2316.1334     -1944.0527    
    335500   306.43631      3330.0626     -2309.5036     -1913.693     
    336000   311.80077      1010.4632     -2304.3802     -1901.6072    
    336500   299.03232     -134.29235     -2340.5961     -1954.478     
    337000   314.67573      488.15435     -2338.2468     -1931.6285    
    337500   320.15148     -594.83827     -2299.9193     -1886.4534    
    338000   284.12919     -392.17288     -2285.8406     -1918.8614    
    338500   295.63857      480.52333     -2314.4001     -1932.9068    
    339000   305.68023      614.4428      -2317.3032     -1922.5803    
    339500   317.70659      2184.0969     -2281.7854     -1871.786     
    340000   301.33073      325.2336      -2304.6022     -1916.0048    
    340500   311.16395      294.37835     -2329.2531     -1927.7605    
    341000   289.3444      -514.79889     -2328.7559     -1955.2438    
    341500   299.38884      1878.9716     -2326.2423     -1939.9293    
    342000   310.98094      115.40562     -2301.9015     -1900.2385    
    342500   297.42708      765.64974     -2331.2315     -1947.0525    
    343000   295.18195      1467.3824     -2313.3592     -1932.0188    
    343500   303.49482      1365.8604     -2299.4816     -1907.3523    
    344000   296.23214      411.68263     -2306.9257     -1924.3368    
    344500   292.14387      2623.4434     -2359.8148     -1982.3048    
    345000   288.24056      1788.7072     -2304.0665     -1931.8087    
    345500   314.93071      1634.7625     -2314.26       -1909.0872    
    346000   292.11589      3031.4442     -2313.6194     -1937.141     
    346500   281.75419      1798.4972     -2348.249      -1984.9186    
    347000   289.7592       1335.4983     -2321.1561     -1947.556     
    347500   314.27504      1273.9601     -2333.0575     -1928.7451    
    348000   306.22188      1260.1965     -2332.7759     -1938.958     
    348500   287.06416      212.58738     -2346.5424     -1976.5408    
    349000   296.15587      491.64135     -2306.8622     -1925.6496    
    349500   296.57818     -579.68053     -2301.821      -1919.3108    
    350000   287.9002       654.00551     -2320.8668     -1950.6348    
    350500   273.65868      959.67901     -2321.6076     -1968.7706    
    351000   319.77976      1086.6076     -2326.4552     -1914.2693    
    351500   282.61286      1455.6128     -2314.392      -1949.8834    
    352000   283.42849      1998.6183     -2297.3252     -1931.7524    
    352500   302.78349     -177.7803      -2291.6312     -1901.8426    
    353000   314.62899      739.45705     -2325.032      -1918.7966    
    353500   279.19827      560.29301     -2315.2793     -1955.0582    
    354000   303.41305      1109.437      -2306.5051     -1914.5222    
    354500   306.8369       642.99836     -2311.151      -1914.9642    
    355000   289.86561      2357.6377     -2325.2682     -1951.231     
    355500   285.09092     -256.50312     -2350.0413     -1982.1611    
    356000   295.46647      1405.115      -2302.2802     -1920.7577    
    356500   298.83205      708.36953     -2330.0837     -1944.3115    
    357000   301.91324      1752.0708     -2348.6309     -1958.7077    
    357500   312.85279      1414.5037     -2303.0792     -1899.0136    
    358000   280.87677      3072.6657     -2301.315      -1938.6026    
    358500   291.52533      1734.449      -2323.431      -1947.165     
    359000   319.59946      1873.0531     -2309.6332     -1897.1317    
    359500   291.80928      810.37519     -2309.1563     -1932.514     
    360000   290.70069      1823.4452     -2331.9345     -1956.6199    
    360500   290.29403      641.90875     -2312.7908     -1938.0803    
    361000   308.9983       1287.7382     -2302.379      -1903.0841    
    361500   323.7897       1923.5343     -2291.7756     -1873.5704    
    362000   302.02343      1208.173      -2325.2224     -1935.1491    
    362500   296.5101       162.5085      -2325.19       -1942.0953    
    363000   313.33162      2214.8285     -2296.2193     -1891.3725    
    363500   297.13491      1099.385      -2293.3651     -1909.4981    
    364000   294.97617      18.402142     -2300.1822     -1919.282     
    364500   288.7711       1469.154      -2315.6898     -1942.4793    
    365000   277.81607      316.67645     -2323.662      -1964.6616    
    365500   313.42916      1302.7922     -2315.803      -1910.7526    
    366000   292.87097      158.28464     -2316.375      -1938.692     
    366500   304.83919      1694.8225     -2307.8451     -1914.2258    
    367000   310.69918      849.81119     -2298.2221     -1897.32      
    367500   296.65261      1696.6064     -2319.4759     -1936.3863    
    368000   303.67908      1246.0368     -2313.2337     -1921.2164    
    368500   306.02013      859.41841     -2318.8769     -1923.8046    
    369000   306.56814      1517.4802     -2300.5173     -1904.6567    
    369500   328.52456      637.61701     -2326.6122     -1902.5017    
    370000   293.26995      1366.0727     -2333.5479     -1954.796     
    370500   317.31877      593.58431     -2338.4662     -1928.8982    
    371000   313.20208      2235.6861     -2293.5224     -1889.2247    
    371500   292.5132       1273.6251     -2304.634      -1927.0218    
    372000   294.86645      979.22328     -2339.9852     -1959.1739    
    372500   285.35698      516.35324     -2364.4159     -1996.0519    
    373000   294.55249      751.47887     -2322.8883     -1942.6223    
    373500   306.68864      1479.6321     -2311.3561     -1915.3289    
    374000   304.61058      2878.9864     -2330.7413     -1937.5644    
    374500   284.47377      507.75921     -2335.7131     -1968.5188    
    375000   311.23318      1676.7881     -2332.7835     -1930.9897    
    375500   299.58002      1472.0133     -2326.1816     -1939.4417    
    376000   303.06652     -27.843116     -2311.0446     -1919.7339    
    376500   308.99042      1520.6303     -2286.4036     -1887.4333    
    377000   308.2928       1518.6035     -2336.016      -1937.9114    
    377500   302.01567      1155.4011     -2343.1934     -1953.3032    
    378000   315.51459      1737.7713     -2301.4664     -1894.3422    
    378500   298.00281     -179.79455     -2315.9811     -1931.2422    
    379000   299.79767      155.15538     -2326.2901     -1939.1927    
    379500   299.77078      1913.7949     -2282.254      -1895.2431    
    380000   292.82549      474.4828      -2282.8455     -1904.7034    
    380500   306.35211      432.69881     -2324.2688     -1928.9981    
    381000   297.54504      970.28697     -2288.1313     -1903.7946    
    381500   309.96554      1553.4449     -2277.3497     -1876.7779    
    382000   315.54833     -502.89255     -2322.4091     -1914.6389    
    382500   310.5181       1684.4424     -2300.5559     -1899.8595    
    383000   286.31627      370.05647     -2273.2698     -1904.0843    
    383500   305.92412      422.53813     -2341.4872     -1946.4297    
    384000   303.90244      2718.3599     -2322.4701     -1930.0128    
    384500   310.04905      1542.5289     -2302.5007     -1902.3016    
    385000   298.24653     -415.78812     -2326.2609     -1941.5148    
    385500   312.53347     -1148.1396     -2323.8807     -1920.3293    
    386000   323.05791      674.74107     -2288.8736     -1872.1452    
    386500   307.94068      1605.7343     -2313.7661     -1916.1483    
    387000   296.70378      2085.4066     -2333.0603     -1949.8499    
    387500   299.70889      1076.9497     -2336.6569     -1949.4726    
    388000   295.04165      1065.6296     -2284.1527     -1903.7261    
    388500   293.05018      796.94607     -2319.7304     -1941.4534    
    389000   298.73235      2097.7864     -2302.4911     -1917.2474    
    389500   303.3177       72.616442     -2269.658      -1878.512     
    390000   305.74093      340.19914     -2327.8386     -1932.702     
    390500   308.42747      951.7683      -2340.7114     -1942.21      
    391000   313.83617      931.6607      -2318.4831     -1913.4937    
    391500   297.69984      523.33878     -2301.0912     -1916.6501    
    392000   292.59506      865.43859     -2333.3043     -1955.9271    
    392500   316.49655      2479.9776     -2338.8813     -1930.626     
    393000   304.65754      1659.9069     -2362.2993     -1969.4057    
    393500   311.15677      694.89046     -2367.0614     -1965.5686    
    394000   315.03752      1039.0031     -2322.7342     -1916.1792    
    394500   295.55389      310.06187     -2321.3515     -1940.1696    
    395000   294.93637      418.0724      -2347.8016     -1967.3373    
    395500   286.79304      1236.8544     -2274.4018     -1904.4224    
    396000   295.47188      1395.8759     -2316.0465     -1934.9743    
    396500   271.51559     -2.7131961     -2318.2195     -1967.7375    
    397000   299.0972       1248.4751     -2301.2988     -1915.1028    
    397500   287.32876      1106.6762     -2282.1756     -1911.2286    
    398000   293.74545      1600.4852     -2338.4306     -1959.1926    
    398500   299.24567      1190.3791     -2287.1144     -1900.6374    
    399000   309.02508     -1328.7736     -2318.381      -1919.6075    
    399500   285.63416      1557.4531     -2316.7273     -1947.9139    
    400000   305.27552      1454.8808     -2288.5313     -1894.3029    
    400500   302.24055      2221.9346     -2299.5243     -1909.3112    
    401000   301.44916      158.97184     -2337.6759     -1948.6203    
    401500   304.49984      1809.3861     -2311.702      -1918.8046    
    402000   330.32134      188.05159     -2296.207      -1869.9959    
    402500   313.23487      896.83887     -2321.9941     -1917.5782    
    403000   294.15863      465.77559     -2323.0481     -1943.1284    
    403500   288.12966      1443.6633     -2367.0677     -1995.1835    
    404000   299.57624      2023.6294     -2360.8579     -1974.1485    
    404500   310.98772      1455.7371     -2332.1712     -1930.7558    
    405000   316.07554      1013.5997     -2302.7234     -1894.6236    
    405500   286.26126      38.960579     -2309.1314     -1939.6411    
    406000   306.78074      533.09942     -2330.3545     -1934.1697    
    406500   315.02492      1409.2424     -2293.1575     -1886.4094    
    407000   281.80992      1396.2426     -2313.9617     -1950.1794    
    407500   297.50506      1267.6097     -2318.3709     -1934.3109    
    408000   311.68369      1502.5456     -2297.9452     -1895.6187    
    408500   296.54459      1319.15       -2308.5143     -1925.7889    
    409000   306.47589      1168.37       -2340.2629     -1944.7756    
    409500   290.26153     -10.287006     -2363.0678     -1988.5565    
    410000   296.45579      658.76192     -2335.5414     -1952.9125    
    410500   296.19954      332.72864     -2298.5711     -1916.3577    
    411000   314.72819      919.15882     -2284.3513     -1878.2298    
    411500   313.05496     -74.697276     -2280.4544     -1876.0038    
    412000   297.19564      1627.1544     -2301.8917     -1918.0985    
    412500   307.30038      1761.2805     -2336.6084     -1939.7959    
    413000   288.49965      1364.0626     -2360.7088     -1987.978     
    413500   282.49645      1038.7739     -2304.8929     -1940.1472    
    414000   308.02487     -1603.5215     -2333.5879     -1935.5323    
    414500   304.65411      1497.4212     -2348.4858     -1955.4208    
    415000   291.59189      813.04025     -2334.3142     -1957.7837    
    415500   315.10292      682.87735     -2332.3635     -1925.7615    
    416000   299.2814       729.49808     -2336.6102     -1950.3934    
    416500   288.7688       2065.1514     -2360.3711     -1987.5499    
    417000   300.93949      2445.463      -2326.232      -1937.7554    
    417500   303.29949      327.27977     -2307.8406     -1916.2611    
    418000   296.03168      904.05257     -2331.4159     -1949.1678    
    418500   296.0168       1631.1695     -2332.3719     -1950.4785    
    419000   311.50261      22.008658     -2314.5251     -1912.7581    
    419500   306.65609      109.91666     -2330.0571     -1934.454     
    420000   273.81596      1041.8096     -2331.9572     -1978.3701    
    420500   301.63935      2730.5181     -2330.8968     -1941.7503    
    421000   298.42015      1155.1494     -2299.6793     -1914.581     
    421500   323.93706      177.27097     -2285.6294     -1867.4433    
    422000   321.24367      1588.7152     -2278.2537     -1863.5789    
    422500   288.97251      956.6165      -2308.4745     -1935.4684    
    423000   298.84229      1328.9292     -2303.328      -1917.5875    
    423500   310.17016      590.51472     -2293.7148     -1893.2516    
    424000   302.89022      706.06258     -2329.7778     -1938.9536    
    424500   295.73849      1188.7422     -2327.0244     -1945.4299    
    425000   296.60475      2463.3439     -2286.0607     -1903.1302    
    425500   295.78671      843.49445     -2313.6995     -1932.1719    
    426000   286.54785      104.81205     -2319.8471     -1949.821     
    426500   300.6894       940.57496     -2284.0788     -1896.1139    
    427000   289.44859      1921.8839     -2301.6239     -1927.8894    
    427500   288.89999      1306.4366     -2333.8421     -1961.0999    
    428000   283.75454      646.25273     -2312.7476     -1946.2848    
    428500   314.88266     -180.18577     -2336.0895     -1929.6232    
    429000   305.62371      864.41039     -2267.3216     -1872.612     
    429500   298.39619      1004.8591     -2299.9248     -1914.6371    
    430000   311.96087      2011.6617     -2329.7262     -1926.9327    
    430500   274.69035      1370.5796     -2328.9648     -1974.2299    
    431000   289.72904      1035.1961     -2315.2595     -1941.0714    
    431500   302.30068      1133.2265     -2312.8591     -1922.5799    
    432000   306.32275      1128.8914     -2292.4716     -1896.9123    
    432500   293.7134       81.99625      -2335.507      -1956.2323    
    433000   308.67785      1232.8416     -2320.9519     -1922.3965    
    433500   303.53524      1239.4683     -2309.4115     -1917.6573    
    434000   284.03479      299.48982     -2331.0876     -1964.3739    
    434500   307.41673      1110.9322     -2312.8478     -1915.9531    
    435000   299.38796      414.17468     -2311.7494     -1925.186     
    435500   276.10966     -539.2915      -2315.0866     -1958.6434    
    436000   309.35949      986.73756     -2334.781      -1935.4495    
    436500   311.60219      376.66502     -2310.212      -1908.0181    
    437000   300.64187      273.61963     -2337.4475     -1949.1886    
    437500   326.74004      661.48086     -2355.5557     -1933.7104    
    438000   312.58187      1110.2729     -2305.2145     -1901.7191    
    438500   296.03536      1032.4698     -2340.3026     -1958.0381    
    439000   317.43359      1668.0028     -2338.6405     -1928.7658    
    439500   308.30998      874.35185     -2344.244      -1946.2658    
    440000   293.1926      -701.34048     -2342.0159     -1963.531     
    440500   286.03635      1197.022      -2282.6967     -1913.3352    
    441000   306.16702      998.66508     -2315.6648     -1920.233     
    441500   291.14693     -71.62682      -2336.0708     -1960.1406    
    442000   302.16171      1738.784      -2315.3282     -1925.1143    
    442500   303.14698      1645.7289     -2300.4971     -1909.008     
    443000   345.28566      1747.2694     -2311.9383     -1866.362     
    443500   308.27751      1180.5688     -2312.2097     -1914.4115    
    444000   308.27126      192.7543      -2335.5289     -1937.5729    
    444500   294.02951      572.27726     -2304.7339     -1925.0701    
    445000   304.79913      1477.0174     -2293.2419     -1899.8783    
    445500   279.5928       673.93831     -2310.8387     -1949.9102    
    446000   310.30435      1441.2859     -2332.9229     -1932.3374    
    446500   302.19412      889.04256     -2289.3779     -1899.5009    
    447000   292.79055      51.985079     -2264.4123     -1886.469     
    447500   291.24552      2118.5709     -2318.0328     -1941.8686    
    448000   293.28987      1467.5955     -2323.7572     -1944.9857    
    448500   309.11701      488.28845     -2346.7252     -1947.847     
    449000   300.52042      937.75825     -2314.5333     -1926.5946    
    449500   293.40282      2558.6672     -2286.5106     -1907.5798    
    450000   312.17318      1323.1936     -2367.8878     -1964.6887    
    450500   287.17017     -18.516356     -2302.7664     -1931.9216    
    451000   308.09782      579.62695     -2309.0328     -1911.1453    
    451500   295.50202     -58.67727      -2305.375      -1923.7073    
    452000   308.56993      803.34398     -2347.6675     -1949.3605    
    452500   292.72559      1014.2136     -2312.8317     -1934.7544    
    453000   296.3463       420.09818     -2287.1112     -1904.3789    
    453500   294.6569       58.789189     -2343.0409     -1962.6042    
    454000   298.27831      2297.6728     -2306.7085     -1921.5897    
    454500   303.96545      2025.823      -2311.0514     -1918.558     
    455000   284.55342      803.25368     -2345.0633     -1977.6424    
    455500   287.01961      502.1279      -2321.108      -1950.6623    
    456000   305.57579      206.48979     -2327.5796     -1933.0343    
    456500   313.9092       1194.3825     -2297.6181     -1892.311     
    457000   281.5824       1834.7953     -2303.7008     -1940.2478    
    457500   285.33666      346.07826     -2306.7679     -1938.311     
    458000   313.72855      343.18779     -2283.3617     -1878.3249    
    458500   328.92783      1041.8165     -2335.8416     -1911.0816    
    459000   289.33785     -57.706668     -2317.6828     -1944.1171    
    459500   302.46895     -518.06226     -2293.8698     -1903.3354    
    460000   318.79576      387.81317     -2306.2018     -1894.5572    
    460500   307.2673      -48.126047     -2325.8366     -1929.0197    
    461000   301.22646      1605.2663     -2319.3949     -1930.8901    
    461500   315.23465      248.97413     -2302.8206     -1895.7897    
    462000   316.00268      550.42654     -2340.0227     -1932.6737    
    462500   294.75966      214.3272      -2317.5624     -1937.5675    
    463000   311.69245      2135.9479     -2317.1872     -1915.4429    
    463500   311.07751      1416.8705     -2334.6397     -1933.0251    
    464000   291.41626      1464.8459     -2325.6313     -1949.3186    
    464500   317.88427     -551.53733     -2302.3597     -1891.8119    
    465000   309.92693      1521.5196     -2313.6429     -1913.4214    
    465500   301.55907      784.03419     -2328.5884     -1939.2125    
    466000   286.47174      549.323       -2330.2474     -1960.3973    
    466500   290.02115      1630.3144     -2290.3363     -1915.7979    
    467000   290.11717      2352.6211     -2273.0552     -1898.1463    
    467500   282.04914      261.26497     -2321.1548     -1956.9506    
    468000   296.67969     -67.624591     -2323.0812     -1940.2791    
    468500   305.64597      251.61687     -2300.4127     -1905.9701    
    469000   317.16233      1528.8017     -2275.0302     -1865.6964    
    469500   313.40529      1325.5104     -2321.7901     -1916.9956    
    470000   287.92632      1378.684      -2311.0925     -1939.2803    
    470500   307.12567      796.01187     -2286.3762     -1889.9523    
    471000   307.65886     -511.75645     -2314.3869     -1917.1039    
    471500   295.2672       720.28504     -2316.5843     -1935.4188    
    472000   316.68724     -208.83222     -2309.2101     -1900.2885    
    472500   309.24065      1157.7503     -2316.4619     -1917.0922    
    473000   286.5979       629.63552     -2309.1366     -1939.2115    
    473500   313.42114      563.30478     -2313.5187     -1908.9095    
    474000   301.82655      188.66457     -2342.9058     -1953.2781    
    474500   316.8947       2038.8986     -2336.0016     -1926.8965    
    475000   325.56517      1442.9251     -2266.3385     -1846.1044    
    475500   301.01853     -619.45229     -2286.1181     -1897.5522    
    476000   300.97028      3738.546      -2322.2572     -1933.6974    
    476500   303.97399      1883.9593     -2368.8805     -1976.3423    
    477000   312.13681      250.15028     -2325.845      -1922.9663    
    477500   292.46712      924.80702     -2293.0856     -1915.5097    
    478000   296.29521      751.34394     -2311.4807     -1928.905     
    478500   305.36179      607.03288     -2349.4963     -1955.5723    
    479000   311.39765      1386.5106     -2301.4707     -1899.6012    
    479500   288.66367      1554.7764     -2302.1992     -1929.8553    
    480000   300.95782      709.80893     -2311.4523     -1922.562     
    480500   313.65854      569.98641     -2288.5388     -1883.231     
    481000   296.73666      1009.8772     -2321.8484     -1939.0406    
    481500   314.13883      308.18371     -2338.4169     -1933.2252    
    482000   303.86242      1239.8979     -2310.4127     -1918.7187    
    482500   287.58581      2067.3176     -2273.8232     -1903.7548    
    483000   308.52408      2355.7679     -2348.3161     -1949.932     
    483500   295.72257      569.10539     -2315.9255     -1933.9115    
    484000   325.65881      979.12019     -2313.8686     -1893.5906    
    484500   296.59217      96.368403     -2322.5917     -1941.1838    
    485000   283.12226      2076.6471     -2317.3602     -1952.6001    
    485500   312.05201     -14.831395     -2340.5724     -1937.3334    
    486000   297.58312      1989.6648     -2288.1511     -1903.6218    
    486500   290.57297      2003.8766     -2268.3361     -1894.772     
    487000   297.46093      650.33606     -2321.3318     -1938.3835    
    487500   308.67786      1059.1344     -2342.4287     -1944.9041    
    488000   294.82351      1035.3337     -2316.0508     -1935.4309    
    488500   308.18926      117.5673      -2296.2491     -1898.3419    
    489000   323.96203      1817.0886     -2265.9809     -1848.3779    
    489500   296.90617      1405.1188     -2285.9293     -1902.3755    
    490000   288.21714      1224.5768     -2317.7479     -1945.3233    
    490500   298.99752      462.25787     -2333.5038     -1947.076     
    491000   288.43863      860.78513     -2339.8253     -1967.3317    
    491500   311.62874      609.40691     -2314.376      -1913.511     
    492000   312.70222      818.00408     -2307.473      -1904.2917    
    492500   295.58874      716.97769     -2311.3997     -1931.3818    
    493000   299.57062      485.62468     -2355.1819     -1969.0684    
    493500   298.95618      2268.454      -2307.9003     -1922.5779    
    494000   307.59918      455.35986     -2309.9687     -1914.4219    
    494500   295.35019     -46.377012     -2303.0137     -1922.3403    
    495000   292.17551     -284.77557     -2297.8767     -1921.4324    
    495500   309.09176      99.269409     -2298.6565     -1901.1082    
    496000   282.47661      263.52146     -2296.5033     -1932.3173    
    496500   291.88185      1047.2271     -2321.1249     -1945.6451    
    497000   308.62559      673.2982      -2300.8846     -1903.0614    
    497500   312.73145      895.27486     -2335.7875     -1932.9743    
    498000   290.1774       2338.6303     -2329.3873     -1955.2429    
    498500   298.07884      1048.3134     -2307.0322     -1921.9598    
    499000   300.66529      1060.7151     -2315.2625     -1927.0839    
    499500   295.9617       1183.129      -2304.191      -1922.4662    
    500000   294.83649     -572.45513     -2350.808      -1970.2612    
    500500   303.91681      2512.086      -2316.7        -1924.7226    
    501000   299.06523      2509.8076     -2301.3835     -1915.5367    
    501500   286.95859     -262.76681     -2323.6927     -1953.2768    
    502000   301.8985       74.069058     -2306.0432     -1916.1766    
    502500   310.9687       2228.1845     -2294.9603     -1893.483     
    503000   298.64694      451.99624     -2333.3561     -1947.7113    
    503500   295.33839      1212.5949     -2312.312      -1931.4003    
    504000   284.74036      1871.3504     -2281.8577     -1914.39      
    504500   294.72818      1177.7492     -2348.7496     -1968.1413    
    505000   312.08092      265.15074     -2330.9101     -1928.1035    
    505500   304.51304      2293.762      -2320.4944     -1927.2783    
    506000   289.32798     -56.046951     -2339.3647     -1965.6354    
    506500   282.58388      1535.3466     -2280.3017     -1915.3412    
    507000   301.47892      1499.3342     -2297.3254     -1908.1787    
    507500   277.16653      1484.7084     -2306.317      -1948.4209    
    508000   301.24754      637.7595      -2327.5118     -1938.589     
    508500   317.64539      16.597571     -2309.7302     -1899.7933    
    509000   289.61755     -653.59255     -2307.968      -1934.3213    
    509500   299.39472      2760.6578     -2332.393      -1945.7729    
    510000   327.51394      545.85904     -2311.7446     -1889.1203    
    510500   308.06277     -37.420454     -2328.7331     -1930.9713    
    511000   286.51664      1202.5441     -2310.7211     -1940.777     
    511500   293.95871      1188.1015     -2298.6353     -1919.2514    
    512000   288.55825      439.42244     -2350.7207     -1978.4041    
    512500   302.05166      2048.0682     -2337.4881     -1947.6876    
    513000   310.32274      1186.2096     -2341.2        -1940.7531    
    513500   293.35096      2400.5481     -2317.2469     -1938.5801    
    514000   299.63719      1854.3247     -2275.6572     -1888.6303    
    514500   301.6702      -371.44993     -2335.6553     -1946.1915    
    515000   296.55762      1967.9126     -2323.487      -1940.6599    
    515500   304.73666      471.15355     -2283.0806     -1889.5514    
    516000   298.46075      24.846888     -2282.6424     -1897.3429    
    516500   285.31232      184.42225     -2320.4237     -1952.1161    
    517000   301.01821      445.25807     -2317.2692     -1928.8903    
    517500   297.36498      633.64006     -2297.4694     -1913.4531    
    518000   302.19024      310.23903     -2358.2468     -1968.4859    
    518500   308.20388      437.1171      -2328.7359     -1930.998     
    519000   310.27732      1292.8407     -2304.7949     -1904.195     
    519500   307.38435      688.14416     -2307.2376     -1910.328     
    520000   296.64671      356.28376     -2307.3255     -1923.993     
    520500   311.84948      192.12509     -2292.3706     -1889.7062    
    521000   319.60936      27.210348     -2320.2744     -1907.6214    
    521500   301.15078      1709.412      -2342.1736     -1953.2505    
    522000   310.30746      2682.7324     -2310.8732     -1910.0356    
    522500   302.29204      1401.2369     -2303.6286     -1913.3949    
    523000   307.07528      1490.1014     -2323.0316     -1926.5679    
    523500   291.55359     -152.45599     -2318.6435     -1942.2282    
    524000   278.06278      1786.9393     -2283.6887     -1924.7376    
    524500   320.39105      1757.104      -2303.9314     -1890.178     
    525000   292.45325      668.28514     -2310.2854     -1932.7037    
    525500   300.08468      1318.6241     -2303.3882     -1916.0165    
    526000   322.16148      2523.0107     -2303.6297     -1887.6785    
    526500   298.41355      726.71462     -2322.9946     -1937.9171    
    527000   292.34509      1283.2909     -2325.393      -1948.2154    
    527500   300.33563      1491.457      -2312.5353     -1924.9723    
    528000   309.72567      1236.3059     -2338.6101     -1938.661     
    528500   279.99366      112.48692     -2344.1243     -1982.6106    
    529000   303.47638      2078.6592     -2350.3068     -1958.4228    
    529500   304.42175      193.96247     -2313.4886     -1920.1988    
    530000   311.65593      1642.3118     -2300.8496     -1898.42      
    530500   297.49915      1505.7753     -2324.7622     -1941.1861    
    531000   297.64738      849.32505     -2329.2817     -1945.4861    
    531500   318.3456       2049.7798     -2323.6082     -1912.7792    
    532000   285.98668      582.54414     -2311.4128     -1941.9132    
    532500   309.01838      193.71293     -2291.3041     -1892.739     
    533000   319.64522      1843.4442     -2306.1801     -1893.8769    
    533500   297.63388     -441.26279     -2300.7744     -1916.4889    
    534000   283.07456      1099.1589     -2298.1479     -1933.0213    
    534500   302.23596     -319.99468     -2353.9978     -1964.1387    
    535000   306.60433      1914.4446     -2314.254      -1918.4542    
    535500   302.67659      1563.2805     -2344.0805     -1953.2347    
    536000   284.71827      1883.3481     -2337.2349     -1969.6325    
    536500   287.55686      682.79581     -2290.9807     -1919.8464    
    537000   310.1803       306.39337     -2305.3955     -1904.8978    
    537500   302.57832      826.82822     -2355.6476     -1964.8938    
    538000   299.31334      343.99881     -2316.3944     -1929.8406    
    538500   307.19533      612.90467     -2300.5104     -1903.8965    
    539000   306.07073      1724.84       -2336.9482     -1941.6958    
    539500   298.43139      1159.0975     -2327.9788     -1942.7496    
    540000   320.78496      952.80054     -2317.5566     -1903.2215    
    540500   292.00464      808.90381     -2335.8096     -1958.6729    
    541000   282.38329      956.50589     -2314.6386     -1950.1064    
    541500   295.89719      1145.8262     -2293.1622     -1911.1787    
    542000   295.77808      1428.9463     -2307.0305     -1925.1964    
    542500   289.39955      1556.3774     -2309.7625     -1936.0575    
    543000   304.6278       1551.7164     -2345.8543     -1952.5885    
    543500   277.5868       2495.848      -2291.4543     -1933.047     
    544000   325.21134      548.82647     -2328.9        -1908.972     
    544500   283.09161      1366.9971     -2329.1802     -1963.6773    
    545000   300.29135      2256.5059     -2319.1357     -1931.3691    
    545500   308.7225       984.86373     -2310.1817     -1911.6143    
    546000   303.47077      2452.3664     -2337.2407     -1945.5388    
    546500   290.96977      650.34906     -2325.118      -1949.287     
    547000   312.82527      827.65637     -2312.3557     -1908.4185    
    547500   302.30647      344.78801     -2321.5309     -1931.1833    
    548000   300.10591      1242.2954     -2326.0707     -1938.8145    
    548500   299.90082      1116.5942     -2326.9016     -1940.0407    
    549000   299.27507      1070.37       -2320.6119     -1934.3926    
    549500   313.27026      1143.1352     -2313.7171     -1909.284     
    550000   279.3559       1239.7664     -2316.0731     -1955.2647    
    550500   296.22551      1516.2713     -2319.805      -1937.2605    
    551000   309.62653      605.72061     -2326.9443     -1927.133     
    551500   305.84175      242.28763     -2306.0857     -1911.445     
    552000   323.91547      1947.4452     -2305.262      -1887.2511    
    552500   293.82857      3117.7673     -2328.0185     -1948.9799    
    553000   311.24907      1858.1617     -2326.091      -1924.4401    
    553500   302.86747      25.441003     -2304.2259     -1912.8801    
    554000   287.49917      231.34164     -2328.01       -1956.6125    
    554500   298.62543      1920.1179     -2294.9881     -1909.3731    
    555000   306.66583     -215.16142     -2310.1742     -1913.9112    
    555500   294.74525     -1867.6655     -2316.7522     -1936.191     
    556000   296.64932      1567.2377     -2318.5731     -1935.2767    
    556500   292.14637     -109.01737     -2346.722      -1971.4591    
    557000   297.35089      844.72573     -2305.8811     -1922.535     
    557500   307.5981       1104.3433     -2323.277      -1926.6981    
    558000   282.97723     -1041.8241     -2316.1003     -1951.3281    
    558500   299.24623      855.71995     -2322.2767     -1936.4431    
    559000   296.10832      165.75708     -2288.6777     -1906.7896    
    559500   287.72629      760.45426     -2332.4829     -1960.9559    
    560000   313.39729      201.28156     -2328.4199     -1924.4358    
    560500   295.64587     -324.06548     -2295.0492     -1913.4472    
    561000   311.72434      905.4157      -2341.5336     -1939.5687    
    561500   278.64205      633.23871     -2309.6086     -1949.5191    
    562000   324.98228     -371.95445     -2318.3381     -1898.9574    
    562500   288.94955      730.7214      -2289.4932     -1916.3921    
    563000   296.56945      687.71122     -2335.2163     -1952.1004    
    563500   287.95926      2265.6415     -2317.6485     -1945.7756    
    564000   282.67711     -705.83542     -2309.6254     -1944.9002    
    564500   295.16787      772.28695     -2281.9264     -1900.9453    
    565000   298.72054      155.93364     -2333.9625     -1948.2767    
    565500   287.40618      722.64744     -2319.46       -1948.3966    
    566000   313.74534      558.71064     -2305.4995     -1900.4763    
    566500   323.47252      996.18953     -2303.4547     -1885.8201    
    567000   298.6939      -1142.4667     -2322.683      -1937.3418    
    567500   287.28613      494.23562     -2323.0389     -1952.1156    
    568000   300.24934      207.04558     -2287.6826     -1899.9305    
    568500   294.20324      1005.1808     -2289.1201     -1909.4364    
    569000   297.831       -1173.8004     -2343.7095     -1959.4354    
    569500   293.12749      519.70025     -2304.1098     -1925.7257    
    570000   297.87992      521.43223     -2301.1694     -1916.5092    
    570500   284.54775      1749.9643     -2311.7513     -1944.6927    
    571000   301.69147      995.36321     -2304.6639     -1915.2138    
    571500   295.03157      2165.7502     -2272.1604     -1891.0006    
    572000   293.014        1265.3268     -2328.5812     -1950.7883    
    572500   288.80532     -131.16719     -2291.5715     -1919.3621    
    573000   301.20879      1595.4704     -2307.8867     -1919.035     
    573500   289.87437     -1122.8327     -2306.7851     -1933.9687    
    574000   310.15796      1567.0849     -2328.4855     -1928.0709    
    574500   294.16842      238.94901     -2302.2125     -1922.2511    
    575000   304.60058      1191.7142     -2324.6376     -1931.5861    
    575500   284.12401      177.1433      -2280.6958     -1913.6272    
    576000   313.67326      1288.6292     -2285.7719     -1880.8058    
    576500   299.98431      490.99089     -2331.9045     -1944.3403    
    577000   311.97377      861.77117     -2326.1139     -1923.1966    
    577500   298.04348      821.50165     -2287.4309     -1902.4255    
    578000   282.54757      49.97943      -2318.2044     -1953.6943    
    578500   330.8565       1986.6198     -2335.3112     -1908.5507    
    579000   293.85361      609.10061     -2313.9238     -1934.4756    
    579500   282.72341      288.36305     -2324.1623     -1959.6456    
    580000   310.26372      93.567508     -2327.8017     -1928.7374    
    580500   306.88262      292.83776     -2325.2187     -1930.9754    
    581000   286.19224      695.8503      -2302.0052     -1933.9836    
    581500   314.74215      1579.3628     -2286.4331     -1881.3927    
    582000   303.07875     -328.11334     -2315.7232     -1924.9442    
    582500   298.82         2131.089      -2320.2138     -1934.9853    
    583000   300.1006       1772.4429     -2319.1119     -1932.3453    
    583500   317.14968      1108.2318     -2281.2112     -1873.2331    
    584000   292.2844      -1111.6826     -2301.5486     -1925.7616    
    584500   291.94771      1784.4632     -2311.8347     -1935.5968    
    585000   312.67934      1806.5423     -2292.7017     -1890.2712    
    585500   321.53253      86.640973     -2340.2398     -1925.6141    
    586000   312.29007      70.56292      -2345.9029     -1943.5432    
    586500   318.21658      1359.1393     -2306.8116     -1897.3908    
    587000   316.40275      1874.6309     -2320.0396     -1913.4657    
    587500   286.82464      1337.9072     -2302.1654     -1931.9009    
    588000   314.12849     -67.718593     -2311.5663     -1906.037     
    588500   303.86929      54.81464      -2284.7818     -1892.7246    
    589000   294.24389      1437.7667     -2325.2316     -1945.0743    
    589500   306.03551      1047.7101     -2323.6899     -1928.2066    
    590000   321.88053      183.9964      -2277.8124     -1861.8556    
    590500   305.78597     -416.00645     -2301.2252     -1906.8152    
    591000   293.00795      2223.5068     -2297.7398     -1919.8042    
    591500   292.72531     -70.860386     -2346.0824     -1968.4103    
    592000   312.87845      229.01487     -2327.104      -1923.472     
    592500   311.92878      1028.8098     -2318.4844     -1915.3681    
    593000   293.83782      620.25525     -2343.9141     -1964.7214    
    593500   314.91106      1914.3689     -2354.3443     -1947.7822    
    594000   309.17411      182.90524     -2347.7587     -1948.5717    
    594500   298.65724      1589.4857     -2290.694      -1905.0524    
    595000   309.04141      1011.041      -2300.2338     -1900.946     
    595500   311.23904     -186.05837     -2346.1084     -1944.1874    
    596000   288.79074      2364.9273     -2302.2728     -1929.1459    
    596500   309.43779      518.08419     -2289.2551     -1889.6737    
    597000   312.75967      1347.1446     -2289.2789     -1886.5751    
    597500   313.67111      989.22449     -2331.12       -1927.8172    
    598000   279.94941      1805.7301     -2307.1874     -1947.5964    
    598500   283.00645      1858.2995     -2349.4525     -1984.5414    
    599000   290.43682     -180.05009     -2296.3513     -1922.0236    
    599500   298.61854      729.10495     -2295.7366     -1911.0864    
    600000   292.15576      935.81111     -2317.6485     -1940.4558    
    600500   289.50397     -939.52596     -2322.7814     -1949.2712    
    601000   289.43603      1249.6718     -2280.4084     -1906.7032    
    601500   302.28684      320.34087     -2321.5881     -1931.3383    
    602000   287.38542      322.87307     -2331.4742     -1960.4646    
    602500   304.4524       677.49009     -2303.741      -1910.6491    
    603000   287.83561      433.52232     -2283.3723     -1911.6797    
    603500   321.67045      1110.7882     -2297.5839     -1882.2002    
    604000   304.85355      219.15422     -2316.2882     -1922.5849    
    604500   293.60252      1011.8468     -2322.9107     -1943.9165    
    605000   299.40557      1859.5427     -2279.0681     -1892.513     
    605500   308.3493       407.16103     -2297.4612     -1899.2797    
    606000   306.94991      1636.1118     -2323.9792     -1927.6195    
    606500   309.26564      1397.3067     -2338.5039     -1939.2399    
    607000   275.04259     -138.38194     -2321.6293     -1966.5262    
    607500   317.23349     -150.56006     -2323.1267     -1913.7312    
    608000   310.53661      630.3222      -2309.2179     -1908.4967    
    608500   275.10131      1199.5131     -2304.8263     -1949.8383    
    609000   299.59688      452.22017     -2332.5852     -1945.8534    
    609500   311.8624       1081.2436     -2311.1024     -1908.6252    
    610000   301.55661      1569.7651     -2315.3705     -1926.3572    
    610500   302.62346      1630.8045     -2379.6508     -1988.9489    
    611000   275.36072      218.98058     -2326.97       -1971.5966    
    611500   288.00376      376.0273      -2301.0866     -1929.2002    
    612000   299.01856      1080.0662     -2288.2168     -1902.056     
    612500   299.2266       452.00324     -2330.3079     -1943.8779    
    613000   282.39238      1257.792      -2320.7809     -1956.1814    
    613500   314.56185      3121.6446     -2323.1154     -1916.9579    
    614000   299.66978      966.68956     -2321.5044     -1934.7335    
    614500   310.80618     -57.504449     -2281.5674     -1880.2461    
    615000   306.8476       301.27605     -2301.8703     -1905.6437    
    615500   292.81629      407.87131     -2317.1129     -1939.0112    
    616000   305.31187      1181.4301     -2290.7044     -1896.5342    
    616500   302.56784      733.27981     -2287.4225     -1896.9234    
    617000   296.29174     -91.017626     -2321.5292     -1939.1533    
    617500   295.94897      1783.6921     -2339.8814     -1957.9865    
    618000   307.90995      1036.8834     -2350.2976     -1953.1234    
    618500   310.5858       1144.0181     -2309.6254     -1908.8969    
    619000   285.45712      337.24907     -2288.2857     -1919.713     
    619500   297.48647      72.756647     -2344.1019     -1960.3373    
    620000   298.12398      2077.222      -2296.6567     -1912.0233    
    620500   293.52604     -812.25447     -2316.7427     -1937.7629    
    621000   296.22483      144.28738     -2318.1399     -1935.666     
    621500   304.13634      432.94651     -2302.8337     -1910.1338    
    622000   296.13456      291.19138     -2338.298      -1955.8835    
    622500   294.16948      723.70973     -2314.6728     -1934.9441    
    623000   315.92098      1783.8097     -2325.0065     -1917.0836    
    623500   294.66337      160.19169     -2330.7629     -1950.3417    
    624000   291.78563      122.62359     -2365.7921     -1989.2546    
    624500   290.31983      1145.7521     -2314.8091     -1939.9957    
    625000   299.65579      475.04001     -2309.6461     -1922.6582    
    625500   311.83314      101.09552     -2306.5901     -1903.9313    
    626000   303.23274      495.02308     -2341.0159     -1949.4414    
    626500   307.59659     -298.66574     -2307.3982     -1910.2443    
    627000   318.50879      1841.6515     -2274.3046     -1863.1511    
    627500   300.65268      775.23077     -2310.752      -1922.4374    
    628000   286.54868      1268.037      -2313.2646     -1943.2493    
    628500   304.27328      283.67589     -2284.9684     -1892.1417    
    629000   307.99056      1830.0573     -2319.672      -1921.9182    
    629500   283.60046      1935.7876     -2308.4516     -1942.4775    
    630000   307.47725     -208.05241     -2288.2537     -1891.6238    
    630500   317.84136      2016.7902     -2296.3002     -1886.1528    
    631000   295.00731      531.16241     -2312.4934     -1931.8245    
    631500   297.57429      1618.8499     -2335.4435     -1951.2194    
    632000   293.73004      2268.7977     -2275.3875     -1896.1582    
    632500   305.05211      728.09229     -2298.7296     -1904.8571    
    633000   290.35437      719.22169     -2315.4022     -1940.5364    
    633500   288.63072      571.21399     -2327.8947     -1955.273     
    634000   298.78462      1801.1307     -2345.4068     -1959.6402    
    634500   308.23586      2279.2228     -2310.0038     -1912.2989    
    635000   286.59408     -541.74594     -2324.59       -1954.6962    
    635500   310.94139      1112.927      -2340.6278     -1939.1384    
    636000   298.00626      1816.9713     -2282.7941     -1898.0656    
    636500   307.01296      928.07099     -2341.9517     -1945.5714    
    637000   298.92129      1089.7089     -2330.0804     -1944.0579    
    637500   288.18532      1191.9098     -2307.178      -1935.1449    
    638000   303.80782      45.042553     -2303.8125     -1911.4848    
    638500   290.32912      770.29052     -2248.2295     -1873.4501    
    639000   299.89346      144.49794     -2297.6956     -1910.4747    
    639500   303.08474      1083.6872     -2328.3464     -1937.0586    
    640000   290.32975     -202.34238     -2329.5424     -1954.58      
    640500   304.96628      2455.3881     -2285.3992     -1891.677     
    641000   314.61125     -695.67577     -2326.1573     -1919.9312    
    641500   280.68228      266.7978      -2318.0781     -1956.6221    
    642000   287.44754      753.96029     -2306.8974     -1935.6186    
    642500   301.66906      320.5422      -2319.8666     -1930.3526    
    643000   301.94071      1880.3874     -2278.9238     -1889.0574    
    643500   308.94476      863.3021      -2323.2726     -1925.9378    
    644000   279.62987      1324.1289     -2303.8122     -1942.7809    
    644500   317.70246      1292.048      -2300.2024     -1890.3109    
    645000   302.83495      579.86233     -2272.1207     -1881.1225    
    645500   299.33048      537.53627     -2320.3318     -1933.845     
    646000   294.69108      1304.2737     -2321.7674     -1941.2076    
    646500   299.35041      1369.7937     -2321.0346     -1934.5076    
    647000   309.56165      64.035511     -2294.6736     -1894.9459    
    647500   292.71134      947.85865     -2319.364      -1941.3387    
    648000   299.77879      2426.5559     -2318.2938     -1931.2597    
    648500   316.58017     -366.82055     -2318.3819     -1909.8363    
    649000   296.08397      780.56503     -2337.4337     -1955.4926    
    649500   288.95539      1582.726      -2311.3989     -1938.4562    
    650000   294.40093      1853.4653     -2293.1626     -1912.8694    
    650500   290.55395      1502.9579     -2327.2641     -1952.2327    
    651000   272.03026      59.697398     -2355.0662     -2003.7973    
    651500   304.64229      2447.5032     -2340.5583     -1947.0278    
    652000   316.04529      722.0909      -2328.8868     -1920.8133    
    652500   299.57277      201.14499     -2296.4623     -1909.5906    
    653000   282.07998      1049.505      -2316.6344     -1952.3802    
    653500   288.27661      1884.9474     -2275.74       -1903.4251    
    654000   311.18383      558.54697     -2319.1274     -1917.4878    
    654500   286.98103      451.30627     -2317.4794     -1947.0143    
    655000   270.80408      1321.1848     -2331.386      -1981.6841    
    655500   296.43628      698.50573     -2316.616      -1933.7762    
    656000   286.98213      2302.6885     -2274.5762     -1904.0505    
    656500   283.99769     -818.54842     -2306.2959     -1939.7441    
    657000   299.55138     -42.200377     -2312.829      -1926.2939    
    657500   299.26965     -229.26152     -2297.7817     -1911.5932    
    658000   283.32711      1146.4431     -2325.9553     -1960.2582    
    658500   312.86445     -310.81203     -2319.6333     -1916.0157    
    659000   315.42998      1241.1531     -2321.4768     -1914.2532    
    659500   293.8051       751.98254     -2356.8517     -1977.48      
    660000   293.74174     -434.01107     -2314.8727     -1935.6106    
    660500   308.83844      1865.2539     -2315.6789     -1916.9848    
    661000   293.7422       1575.0238     -2332.6134     -1953.2891    
    661500   303.77621      1544.4282     -2289.3326     -1897.1126    
    662000   312.27414      694.58379     -2336.2141     -1933.3467    
    662500   295.1705       1643.3972     -2323.3882     -1942.3947    
    663000   305.87661      214.81829     -2319.3739     -1924.5739    
    663500   302.3154       1875.2696     -2264.2785     -1874.1989    
    664000   287.81766      361.85758     -2297.0278     -1925.5522    
    664500   308.64564      2022.05       -2321.2591     -1922.7647    
    665000   293.7214      -513.02562     -2308.6818     -1929.4104    
    665500   296.14347      895.52344     -2330.5138     -1948.5017    
    666000   293.21179      960.33153     -2342.5489     -1964.2458    
    666500   287.26071      1096.9455     -2306.3964     -1935.7014    
    667000   293.13738      1085.7383     -2291.6808     -1913.5508    
    667500   282.92181      226.29        -2322.2409     -1956.9051    
    668000   290.17121      1409.5697     -2287.6695     -1913.2332    
    668500   298.99141     -78.880616     -2294.2339     -1908.4077    
    669000   301.75874      936.10508     -2346.2662     -1956.8354    
    669500   273.47656      2455.2279     -2289.4051     -1936.4527    
    670000   310.79954      1208.6332     -2323.0076     -1921.78      
    670500   303.6072       2003.9487     -2296.6013     -1904.6148    
    671000   294.37918      938.00919     -2277.661      -1897.323     
    671500   294.76493      832.10103     -2334.0171     -1953.4283    
    672000   305.11693      1178.6872     -2312.993      -1918.8318    
    672500   321.09689      1593.0425     -2287.5438     -1874.8971    
    673000   312.7856      -547.87708     -2279.3677     -1875.5271    
    673500   291.67113      1276.6719     -2301.4706     -1924.7411    
    674000   291.68737      74.835984     -2339.4118     -1962.5478    
    674500   312.1174       1568.2488     -2308.8307     -1905.5298    
    675000   298.08748      710.17522     -2316.4454     -1931.6143    
    675500   309.77745      1909.7739     -2340.2165     -1940.3907    
    676000   314.98265      713.62769     -2288.6211     -1882.2768    
    676500   300.69126     -11.339334     -2314.7684     -1926.3207    
    677000   301.36625      319.48951     -2318.0879     -1929.0808    
    677500   313.27992      2531.7373     -2275.8006     -1871.304     
    678000   285.10319      1095.1396     -2282.3764     -1914.0001    
    678500   317.6041      -1072.4667     -2337.1462     -1926.8224    
    679000   280.74645     -2.2531166     -2344.7524     -1982.09      
    679500   290.68281      109.5821      -2312.2467     -1938.2594    
    680000   306.78131      954.20063     -2305.3185     -1910.6554    
    680500   300.43772      388.78856     -2318.5602     -1930.6163    
    681000   298.631        1908.0222     -2352.3916     -1966.8485    
    681500   295.43561      890.17042     -2296.8706     -1916.2252    
    682000   300.417        2353.0035     -2304.3009     -1916.0846    
    682500   281.0214       957.027       -2313.8199     -1951.7158    
    683000   290.2012       992.60171     -2358.2402     -1983.5076    
    683500   294.36932      1457.6265     -2309.2604     -1929.1736    
    684000   290.44439      492.69961     -2295.7439     -1920.6783    
    684500   299.52075      809.81753     -2345.6455     -1960.5787    
    685000   305.36749      301.20157     -2332.2993     -1937.9536    
    685500   304.11713      1422.6722     -2308.7178     -1915.8585    
    686000   305.11491      316.51393     -2343.4703     -1949.5073    
    686500   288.00607      490.52419     -2344.5234     -1973.222     
    687000   305.02902      1219.0659     -2323.17       -1930.6028    
    687500   298.47948      1318.5545     -2300.4706     -1916.4495    
    688000   295.03618      674.69995     -2323.9265     -1944.6605    
    688500   298.24271     -141.86846     -2362.8097     -1977.6867    
    689000   296.95995      1391.2517     -2302.8437     -1919.9936    
    689500   298.65503      1561.5205     -2305.0824     -1919.3254    
    690000   295.14536      1613.4868     -2303.6133     -1922.3296    
    690500   295.57294      139.36949     -2341.3179     -1961.0176    
    691000   310.6654       974.47968     -2308.219      -1909.079     
    691500   307.95888      1315.603      -2312.5362     -1915.7696    
    692000   281.99494      99.054098     -2321.624      -1958.5368    
    692500   311.23969      3048.9449     -2310.4409     -1909.1587    
    693000   317.31202      1346.9458     -2326.5555     -1916.533     
    693500   298.08463      1388.3685     -2343.5371     -1958.6698    
    694000   312.68455      478.73965     -2293.6691     -1889.9418    
    694500   302.36521      1977.8447     -2300.7013     -1910.1974    
    695000   290.28414      1494.6898     -2330.3264     -1955.519     
    695500   294.01267     -324.8967      -2313.1874     -1933.5552    
    696000   326.94553      1270.7882     -2307.6634     -1885.566     
    696500   294.6979       766.76888     -2306.2317     -1925.6929    
    697000   294.2251      -985.54889     -2310.8348     -1931.1002    
    697500   306.21607      1927.8987     -2280.5023     -1885.1763    
    698000   308.40333      1029.1649     -2323.6106     -1925.475     
    698500   288.72415     -182.47803     -2327.1251     -1954.3502    
    699000   284.09746      1530.7617     -2342.9012     -1976.0465    
    699500   300.47146      1481.3336     -2314.3332     -1926.4145    
    700000   303.63155      2382.4763     -2337.0685     -1945.0498    
    700500   292.63485     -67.157026     -2330.173      -1952.3227    
    701000   336.72624      153.4177      -2338.6774     -1903.9382    
    701500   293.42114     -344.31346     -2319.9881     -1941.081     
    702000   279.97111      330.23085     -2312.0037     -1950.7097    
    702500   302.43473      2618.3021     -2289.8748     -1899.4397    
    703000   305.23878      317.05819     -2321.8531     -1927.6667    
    703500   290.38956     -707.85824     -2316.9792     -1942.1321    
    704000   299.4754       1490.5815     -2309.5745     -1922.9091    
    704500   290.24847      876.07371     -2298.0217     -1923.226     
    705000   281.408        1223.3153     -2322.6058     -1959.339     
    705500   305.09173      1837.26       -2326.0651     -1932.2983    
    706000   291.17483     -689.25753     -2296.5446     -1920.7566    
    706500   303.90619      487.28192     -2293.5989     -1901.2346    
    707000   315.75736      1720.1598     -2280.584      -1872.8725    
    707500   290.87308      1814.0671     -2313.9776     -1938.5138    
    708000   307.93108     -794.05119     -2326.0975     -1928.4705    
    708500   313.39214      1018.5894     -2292.4162     -1887.8314    
    709000   298.29272      775.87482     -2328.7626     -1943.5583    
    709500   298.70042      2702.3514     -2318.2259     -1932.4872    
    710000   307.74767     -118.51639     -2310.2789     -1912.8485    
    710500   281.4906       731.1987      -2296.7775     -1933.2862    
    711000   293.75376      2688.3334     -2338.6015     -1959.2667    
    711500   302.00099      2035.466      -2315.2761     -1925.3024    
    712000   296.94688      1882.7404     -2285.2899     -1901.8363    
    712500   304.09417     -118.6399      -2351.0137     -1958.3447    
    713000   297.36038      1489.4385     -2327.9452     -1944.0247    
    713500   316.72126      128.98394     -2308.5531     -1899.5648    
    714000   311.0273       2294.016      -2327.9154     -1926.642     
    714500   305.41692      1768.658      -2361.2996     -1966.9908    
    715000   297.17112      1087.6498     -2301.6387     -1917.9709    
    715500   309.33033      1566.0009     -2311.6948     -1912.4912    
    716000   290.34637      234.47854     -2327.1418     -1952.2225    
    716500   300.90562      1264.4037     -2338.6384     -1950.019     
    717000   303.35502     -19.721571     -2302.1772     -1910.4284    
    717500   294.23623      651.92908     -2305.4631     -1925.5795    
    718000   286.96727      306.68086     -2330.9607     -1960.393     
    718500   304.35467      1227.788      -2304.8273     -1911.8675    
    719000   295.96979      1514.6987     -2289.6218     -1907.8317    
    719500   295.74163      2208.2907     -2333.1789     -1951.7481    
    720000   308.10145      815.56063     -2347.4395     -1950.1838    
    720500   294.33207      931.25853     -2294.6143     -1916.5275    
    721000   304.14752      1252.8789     -2328.0399     -1936.3481    
    721500   293.42235      965.86589     -2327.5131     -1948.6467    
    722000   323.80876      899.55683     -2322.5255     -1904.3583    
    722500   294.41395      633.88071     -2301.8844     -1921.8734    
    723000   315.14634      1435.3604     -2292.8047     -1885.6844    
    723500   303.3908       2196.5        -2282.6954     -1890.9844    
    724000   286.6484       961.10853     -2292.4111     -1922.0937    
    724500   275.97056      1031.6171     -2274.4297     -1918.2398    
    725000   292.37113      169.25189     -2289.193      -1911.6542    
    725500   292.76836     -533.59563     -2322.9718     -1944.8491    
    726000   297.7694       1173.0779     -2270.9339     -1886.3312    
    726500   296.35558     -283.69074     -2306.3156     -1923.4499    
    727000   293.06528      535.97562     -2320.6311     -1941.9454    
    727500   303.13225      3144.9373     -2332.2837     -1940.8363    
    728000   312.97007      680.05577     -2307.4127     -1903.0872    
    728500   291.29894     -147.65248     -2313.9443     -1937.5634    
    729000   282.85304      1789.7738     -2322.4163     -1957.7288    
    729500   313.03654      2670.131      -2295.6838     -1891.4632    
    730000   305.74371      1181.4283     -2310.8569     -1915.9615    
    730500   294.97093      1493.8082     -2320.5124     -1939.6009    
    731000   296.01369      2760.7435     -2313.8609     -1931.9524    
    731500   294.15223      1135.4459     -2308.066      -1928.2156    
    732000   280.44793      1684.4062     -2298.3356     -1937.065     
    732500   284.68201      1498.0954     -2343.6632     -1976.4411    
    733000   279.513       -624.38654     -2320.2028     -1959.2329    
    733500   295.12872     -76.769409     -2298.2267     -1917.2695    
    734000   290.25291      448.98816     -2302.4329     -1927.5852    
    734500   279.42396      131.36623     -2319.113      -1958.2774    
    735000   308.91044      1917.3749     -2287.3048     -1888.5417    
    735500   284.1023       1133.2492     -2286.11       -1919.7411    
    736000   318.33553     -44.714658     -2368.2397     -1957.1541    
    736500   300.81189      1281.6298     -2313.6987     -1925.2242    
    737000   306.72123      409.88188     -2298.1703     -1902.1498    
    737500   306.49019      1216.7701     -2330.5846     -1934.8684    
    738000   305.49646     -400.63247     -2325.3959     -1931.3276    
    738500   314.48126      1727.3997     -2299.1217     -1893.4722    
    739000   278.7591       639.84855     -2313.7187     -1954.1501    
    739500   297.20333      1039.8577     -2308.6981     -1924.9527    
    740000   321.51266      1210.9629     -2324.2745     -1908.9293    
    740500   287.47415      413.07484     -2335.7357     -1964.5649    
    741000   305.12929      1099.8987     -2314.0111     -1920.2961    
    741500   299.07875      1844.2066     -2300.078      -1915.2173    
    742000   278.87161      418.88731     -2340.719      -1980.544     
    742500   294.99058      826.06393     -2326.7625     -1945.6801    
    743000   307.16511      1174.6147     -2313.1682     -1916.5712    
    743500   290.95477      1702.0539     -2328.1274     -1952.2009    
    744000   286.21139      1272.8227     -2329.411      -1959.874     
    744500   297.67004     -192.82792     -2310.6027     -1925.9809    
    745000   282.16589     -119.65        -2300.9102     -1938.0957    
    745500   304.99687      1630.4694     -2284.5038     -1890.6735    
    746000   304.27155     -186.34602     -2336.2775     -1943.3977    
    746500   307.69162      778.95239     -2347.5231     -1950.1181    
    747000   318.56746      495.91508     -2330.8468     -1919.2266    
    747500   300.17041      1844.2117     -2268.5332     -1880.6595    
    748000   300.72102      3174.6458     -2240.5211     -1852.4768    
    748500   298.21536     -299.97088     -2305.3833     -1920.3148    
    749000   293.85496      1041.4894     -2317.33       -1938.2575    
    749500   302.29759      1579.6734     -2293.1749     -1903.114     
    750000   281.00724      1906.4219     -2288.0171     -1925.1392    
    750500   288.47974      710.48028     -2315.5709     -1943.3126    
    751000   306.2939       1114.341      -2306.117      -1910.6613    
    751500   307.12941      635.81382     -2272.9969     -1876.5398    
    752000   294.6748       248.46478     -2303.3603     -1922.9019    
    752500   285.92114     -241.97076     -2322.7929     -1953.617     
    753000   286.65061      1947.5527     -2290.4892     -1920.381     
    753500   308.15797      84.788274     -2308.104      -1910.2232    
    754000   299.28085      1029.4655     -2345.9252     -1959.6993    
    754500   291.20469      247.82344     -2324.2513     -1948.3737    
    755000   313.93741     -807.24284     -2312.217      -1906.5211    
    755500   302.27803      1670.0061     -2324.0125     -1933.7907    
    756000   305.20739      1016.1557     -2327.5044     -1933.7763    
    756500   316.14585      3078.074      -2309.0163     -1901.1608    
    757000   296.29702      1165.4088     -2318.7179     -1936.4343    
    757500   291.20397      572.78486     -2338.1985     -1962.1456    
    758000   306.03172      1312.0151     -2324.6508     -1931.2455    
    758500   281.73743      1151.6824     -2297.0344     -1933.9067    
    759000   296.78457      586.51572     -2317.5032     -1935.6828    
    759500   311.24926      698.3717      -2312.3834     -1910.4339    
    760000   295.37798      898.84158     -2315.3023     -1935.7887    
    760500   290.41652      1001.6325     -2325.2353     -1951.1522    
    761000   320.32379      539.8276      -2309.6672     -1895.9932    
    761500   293.24231      1554.0498     -2308.0472     -1929.0817    
    762000   293.87175      218.52409     -2321.289      -1941.6586    
    762500   305.19218      1731.0209     -2276.7849     -1882.3663    
    763000   306.75524     -31.836523     -2319.8664     -1923.747     
    763500   294.49721      2032.2139     -2314.5029     -1935.1988    
    764000   302.05905      1485.4093     -2301.1157     -1911.0697    
    764500   324.84804      65.687833     -2313.0709     -1893.3713    
    765000   295.77191      1226.1694     -2332.3771     -1950.2323    
    765500   291.01142      795.51606     -2327.4741     -1951.7315    
    766000   306.55178      1352.5037     -2300.7233     -1904.87      
    766500   295.6211       738.53061     -2293.0022     -1911.5096    
    767000   274.88481      1227.3188     -2322.5138     -1967.5143    
    767500   299.85339     -280.83035     -2319.7961     -1932.9433    
    768000   301.70147      1430.3211     -2299.3312     -1909.7851    
    768500   301.14637      1138.198      -2323.5791     -1935.062     
    769000   285.48221     -480.51994     -2332.3962     -1963.6733    
    769500   285.95811      1408.5258     -2289.9237     -1921.0699    
    770000   304.28738      1151.521      -2308.1909     -1915.3072    
    770500   283.24708      2431.0139     -2345.563      -1979.8244    
    771000   304.83942      1617.2487     -2328.2662     -1934.626     
    771500   292.51021      1580.746      -2303.8017     -1926.3235    
    772000   280.66137      2095.0311     -2342.2591     -1980.0683    
    772500   309.55393     -259.78716     -2354.109      -1954.5803    
    773000   286.38991      216.68931     -2300.1735     -1930.356     
    773500   326.81108     -704.11726     -2315.3193     -1893.3465    
    774000   328.58719      1220.6594     -2303.5039     -1879.2145    
    774500   285.26901      815.65919     -2299.4977     -1931.2509    
    775000   289.19066      1357.6816     -2293.1589     -1919.7045    
    775500   314.52937      517.74246     -2300.0407     -1893.8742    
    776000   291.18219      1285.6053     -2312.0255     -1936.0704    
    776500   298.28399      291.72026     -2333.9671     -1948.7334    
    777000   309.60801      857.33085     -2339.98       -1940.1845    
    777500   300.03122      2354.1419     -2286.2514     -1898.8541    
    778000   293.69848      827.09403     -2324.4651     -1945.3108    
    778500   297.36324      2300.6232     -2326.546      -1942.7744    
    779000   296.54189      1912.3079     -2286.0398     -1903.1382    
    779500   303.70427      2102.3887     -2297.1413     -1905.093     
    780000   303.91237      2574.2003     -2333.945      -1941.4995    
    780500   283.87708      1496.1177     -2322.0248     -1955.4785    
    781000   307.30348      734.99651     -2294.9547     -1898.2467    
    781500   295.68591      1872.771      -2320.7862     -1938.9705    
    782000   292.90393      304.94519     -2331.0429     -1952.8444    
    782500   308.20611      317.63673     -2307.2652     -1909.6439    
    783000   311.30702      807.36495     -2248.3239     -1846.7302    
    783500   329.75232      888.1524      -2297.516      -1871.8228    
    784000   307.50834     -192.13306     -2325.6868     -1928.755     
    784500   298.42226      2468.866      -2339.8495     -1954.7156    
    785000   306.1587       225.26551     -2320.0158     -1924.6093    
    785500   298.54308      133.503       -2300.2274     -1914.84      
    786000   292.0807      -862.69553     -2346.8327     -1969.6859    
    786500   279.69023      1365.7047     -2300.2137     -1939.0411    
    787000   294.17967      1071.7784     -2289.8991     -1910.0965    
    787500   319.87462     -1072.7826     -2333.201      -1920.0962    
    788000   305.03974      496.76895     -2344.0615     -1950.1727    
    788500   304.23309      145.10274     -2302.9064     -1910.0412    
    789000   321.43005      909.90722     -2307.8573     -1892.9198    
    789500   302.9955       605.56307     -2340.5847     -1949.3958    
    790000   298.6502      -184.21497     -2292.2723     -1906.637     
    790500   316.92869      483.8401      -2312.1641     -1903.0241    
    791000   272.93863      1696.6358     -2310.3447     -1957.8437    
    791500   262.65799     -66.961958     -2346.7406     -2007.5726    
    792000   294.37319      1419.4786     -2330.9747     -1950.8446    
    792500   297.6842       1316.6081     -2311.8106     -1927.4508    
    793000   315.37444      2221.3059     -2303.955      -1896.4944    
    793500   309.1453      -1017.1163     -2337.1515     -1937.9142    
    794000   288.11305     -167.07487     -2316.4973     -1944.5189    
    794500   317.75409     -318.70656     -2309.0013     -1898.7095    
    795000   322.78439      904.30076     -2249.4609     -1832.7418    
    795500   305.06344      1125.8945     -2281.1515     -1887.228     
    796000   296.06155      1081.9667     -2319.4314     -1937.1008    
    796500   306.44206     -178.93423     -2310.2424     -1914.5142    
    797000   316.10899      1448.8056     -2320.0117     -1911.8788    
    797500   288.22966      170.1185      -2333.3329     -1961.1759    
    798000   281.82623      2362.0774     -2280.2729     -1916.3817    
    798500   299.80503      1940.5116     -2302.6385     -1915.6647    
    799000   295.79399      1206.3912     -2320.0966     -1938.2501    
    799500   312.33065      1114.0668     -2325.0869     -1921.8289    
    800000   280.75501      1010.972      -2341.4336     -1979.055     
    800500   294.99027      2021.2106     -2319.8743     -1939.3266    
    801000   296.70959     -368.72059     -2306.9945     -1924.2332    
    801500   307.11198      917.66465     -2324.6446     -1928.4393    
    802000   298.90298      1256.5425     -2310.5276     -1924.9117    
    802500   297.39517     -69.057199     -2268.8705     -1884.9005    
    803000   307.35286      2439.7911     -2297.3323     -1900.3527    
    803500   285.46405      2680.211      -2306.483      -1937.8577    
    804000   304.13566      880.54158     -2303.9935     -1911.2695    
    804500   306.29563      1482.3164     -2277.1926     -1881.6476    
    805000   307.26247     -316.61175     -2334.3242     -1937.8975    
    805500   311.37877      840.20529     -2314.2467     -1912.499     
    806000   294.30575      1727.1428     -2276.2739     -1896.5014    
    806500   296.51069      1438.4568     -2329.2077     -1946.3335    
    807000   307.98105      1325.1599     -2331.8639     -1934.1471    
    807500   305.24522      1428.6803     -2292.2712     -1898.134     
    808000   296.03896      1161.2209     -2305.2772     -1923.3637    
    808500   279.93966     -798.11003     -2335.866      -1974.2598    
    809000   288.92583      1365.6579     -2318.3358     -1945.4812    
    809500   297.46744      1557.1305     -2293.4716     -1909.5412    
    810000   294.40268      2043.075      -2304.7507     -1924.9733    
    810500   296.81266     -549.50681     -2322.8317     -1939.8187    
    811000   304.08551      1559.2358     -2282.9495     -1890.3921    
    811500   291.74095      1331.1852     -2290.4257     -1913.6842    
    812000   294.40485      1493.4328     -2328.8466     -1948.67      
    812500   307.41067      1695.6728     -2313.912      -1917.0057    
    813000   328.10115      1709.0908     -2315.3627     -1891.9019    
    813500   302.69189      603.27875     -2323.4935     -1932.6701    
    814000   304.02072      1687.8302     -2301.9176     -1909.4069    
    814500   288.70443      228.00426     -2247.7193     -1875.1063    
    815000   291.84058      513.26261     -2312.664      -1935.7719    
    815500   300.59448     -525.53541     -2338.5952     -1950.4456    
    816000   306.95731      242.02738     -2319.604      -1923.5842    
    816500   318.27131      1370.9899     -2310.6709     -1899.9997    
    817000   320.19512      1039.2992     -2342.3188     -1929.2834    
    817500   303.88805     -627.46717     -2333.1424     -1940.9064    
    818000   302.64675      2370.2063     -2283.4324     -1892.8535    
    818500   301.2209       2225.2312     -2322.9792     -1934.0449    
    819000   303.31134      2207.6661     -2341.4274     -1949.8776    
    819500   313.70239      341.1141      -2313.5266     -1908.5513    
    820000   312.63542      809.0508      -2290.9283     -1887.3115    
    820500   301.4722       1713.112      -2313.7714     -1924.4612    
    821000   289.30657      1626.442      -2325.1314     -1951.6412    
    821500   308.579        1379.2886     -2301.2394     -1902.8589    
    822000   304.74764      551.06481     -2304.3867     -1910.9759    
    822500   298.94383      333.80946     -2328.3754     -1941.9345    
    823000   305.40764     -59.366199     -2313.9306     -1919.6684    
    823500   310.39961     -345.12691     -2286.4565     -1886.0467    
    824000   294.26226      2005.2747     -2310.1431     -1930.0373    
    824500   308.11222     -55.507767     -2338.5601     -1940.4375    
    825000   292.05935      1739.3767     -2275.5996     -1898.2727    
    825500   315.57308      571.82659     -2361.1151     -1953.6181    
    826000   297.66304      944.41954     -2316.8871     -1932.4608    
    826500   286.33429      1916.5661     -2296.4874     -1927.0584    
    827000   282.49098      833.02717     -2270.8453     -1906.3313    
    827500   319.59374      185.68322     -2293.9863     -1881.2325    
    828000   293.11585      528.0603      -2301.2005     -1922.7358    
    828500   289.14506     -462.17147     -2314.4427     -1941.0881    
    829000   281.58497      748.59506     -2337.9715     -1974.4577    
    829500   308.35549      2429.7123     -2316.8422     -1918.6667    
    830000   292.82799      587.3084      -2316.9132     -1938.7619    
    830500   281.39867      1166.6255     -2333.5942     -1970.5568    
    831000   321.8087       1213.8832     -2333.2824     -1918.0529    
    831500   290.19322      955.10052     -2310.5199     -1935.8367    
    832000   276.57319      1102.1377     -2328.7501     -1971.8366    
    832500   315.76987      242.38364     -2318.899      -1911.4541    
    833000   279.23244      1004.0806     -2285.4547     -1924.8862    
    833500   294.25357      647.41906     -2345.8188     -1966.1315    
    834000   294.99087      711.18168     -2332.6296     -1951.6716    
    834500   296.73207      1250.4927     -2299.6364     -1916.744     
    835000   315.16858      2340.4292     -2337.7477     -1930.7565    
    835500   282.32092      1636.8996     -2336.6192     -1972.0531    
    836000   305.84931      1414.9519     -2316.2036     -1921.2534    
    836500   307.25085      328.93172     -2305.7624     -1909.1213    
    837000   287.60429     -367.17962     -2322.0915     -1950.7586    
    837500   302.80364     -37.615968     -2344.9486     -1953.9337    
    838000   318.20559     -401.10315     -2304.9622     -1894.1159    
    838500   311.99924      766.56937     -2332.5625     -1929.4508    
    839000   295.49668      102.35054     -2314.425      -1932.1639    
    839500   323.66477      207.99094     -2284.1479     -1866.2289    
    840000   308.04398      1349.3154     -2303.3149     -1905.5366    
    840500   291.37615      1706.1785     -2315.5571     -1939.266     
    841000   262.70463      673.17708     -2333.4516     -1994.2085    
    841500   297.96145      630.7606      -2331.6417     -1946.9345    
    842000   308.29727      891.89722     -2308.8944     -1910.9459    
    842500   291.42387      655.3946      -2294.0085     -1918.0088    
    843000   289.29731      249.41165     -2325.4056     -1952.224     
    843500   310.27396      1760.5173     -2312.5152     -1912.0086    
    844000   303.79857      565.66437     -2319.9146     -1927.3611    
    844500   286.38528      775.09668     -2327.6053     -1957.8248    
    845000   289.04398     -17.903144     -2325.0812     -1951.6427    
    845500   311.29113      1606.7088     -2313.3757     -1911.7317    
    846000   321.7451       868.78576     -2344.3163     -1929.2415    
    846500   279.47867     -568.66028     -2330.2073     -1969.5939    
    847000   296.18023     -318.4902      -2305.141      -1922.7287    
    847500   303.71122     -241.95799     -2312.5552     -1920.436     
    848000   293.78079      264.27319     -2345.5255     -1965.9705    
    848500   296.53875      696.24984     -2309.8879     -1927.011     
    849000   299.74652      453.83003     -2296.7731     -1909.6289    
    849500   288.39167     -1060.8631     -2324.7972     -1952.7718    
    850000   301.14963      840.79572     -2302.6057     -1914.0375    
    850500   306.7858      -716.6872      -2306.6283     -1910.5297    
    851000   295.83289     -60.58175      -2339.8326     -1957.9644    
    851500   297.57071      1244.7017     -2323.8365     -1939.9516    
    852000   296.35395     -838.26803     -2320.485      -1937.9126    
    852500   317.33476      2260.8047     -2322.1662     -1912.446     
    853000   316.48713      2214.8091     -2317.2346     -1908.5968    
    853500   284.91033      344.09819     -2326.5503     -1958.6396    
    854000   289.94751      2148.3741     -2297.708      -1923.2958    
    854500   295.73005      837.97922     -2306.6434     -1924.7962    
    855000   319.80903     -323.76097     -2340.7037     -1927.7196    
    855500   304.63998      1881.1341     -2317.3218     -1923.9357    
    856000   292.65159      1123.4201     -2340.4223     -1962.727     
    856500   304.87237      1082.576      -2299.5037     -1906.0684    
    857000   295.54315      1383.5403     -2300.8785     -1919.6433    
    857500   294.27622     -580.17143     -2355.4564     -1975.6281    
    858000   284.41737      704.57478     -2326.0763     -1959.1629    
    858500   317.55575      24.814357     -2307.2856     -1897.5364    
    859000   312.45952      1262.9247     -2323.0658     -1919.8249    
    859500   305.34155      2002.4456     -2331.162      -1937.1021    
    860000   291.93201      1712.0473     -2310.0964     -1933.4672    
    860500   310.15097      2167.6287     -2298.2673     -1897.7788    
    861000   295.87251      441.6833      -2329.3314     -1947.3737    
    861500   289.03146      1559.7691     -2321.5186     -1948.2823    
    862000   303.79116      967.90913     -2314.6693     -1922.3542    
    862500   294.26247      142.71299     -2281.5746     -1901.5205    
    863000   287.18005      603.58635     -2324.4233     -1953.6116    
    863500   315.28397      792.78692     -2334.8229     -1927.6826    
    864000   319.79743      30.682777     -2284.4543     -1871.6164    
    864500   335.985        3304.4343     -2261.9109     -1828.0746    
    865000   302.60976      1126.3481     -2292.4787     -1901.6496    
    865500   289.34012     -91.822395     -2320.8668     -1947.2355    
    866000   303.2036       1640.235      -2314.3231     -1922.7463    
    866500   301.95892      508.41194     -2277.1768     -1887.2585    
    867000   306.57886      345.81643     -2342.4501     -1946.5412    
    867500   289.88896      2342.1052     -2294.2869     -1919.9172    
    868000   311.71066      1367.5139     -2307.9186     -1905.5319    
    868500   292.40436      505.95979     -2343.2528     -1965.991     
    869000   298.9028       412.03869     -2316.477      -1930.7603    
    869500   309.98649     -208.88518     -2306.7509     -1906.7186    
    870000   289.59334      1064.0933     -2334.249      -1960.5117    
    870500   290.19385      469.29067     -2327.6576     -1953.0345    
    871000   288.27445      654.62136     -2289.7206     -1917.5019    
    871500   300.41669      845.75002     -2333.4037     -1945.4427    
    872000   294.3459       650.22893     -2377.3172     -1997.1765    
    872500   293.1398       910.41336     -2329.4466     -1951.1556    
    873000   294.44675     -82.669182     -2316.0182     -1936.1717    
    873500   298.1586       1333.9272     -2280.6921     -1895.5166    
    874000   285.62059      2154.6077     -2299.9183     -1931.1662    
    874500   303.42983      23.145715     -2325.7029     -1933.9017    
    875000   305.3523       407.4552      -2298.796      -1905.1237    
    875500   335.25208      127.49451     -2293.8838     -1861.0776    
    876000   310.19438      1530.6591     -2325.7099     -1925.0782    
    876500   285.73399      1659.6245     -2287.2504     -1920.0415    
    877000   336.3677       578.15798     -2306.4418     -1871.8313    
    877500   290.31721      454.03626     -2307.8122     -1932.7313    
    878000   292.16342      457.17845     -2291.7416     -1914.3073    
    878500   301.60235      2217.4086     -2300.6528     -1911.0758    
    879000   293.35834      1398.5078     -2335.2859     -1956.6831    
    879500   300.38805      1882.8628     -2304.5346     -1916.7551    
    880000   310.82106      1476.6884     -2311.4852     -1910.1386    
    880500   300.80606      8.530401      -2327.9869     -1939.5162    
    881000   281.44197      1854.3928     -2361.5271     -1998.2298    
    881500   284.40282      940.67808     -2316.2295     -1948.9973    
    882000   293.16289      277.6608      -2297.0805     -1918.5957    
    882500   289.74786      1200.5283     -2284.4501     -1910.3093    
    883000   301.7097       211.0265      -2330.4937     -1941.0051    
    883500   286.41784      1488.8522     -2347.2338     -1977.3677    
    884000   286.80113     -190.44275     -2349.4309     -1979.0591    
    884500   286.18107      784.11771     -2290.9321     -1921.3571    
    885000   299.06256      1142.5287     -2295.1459     -1908.9829    
    885500   304.63697      1345.3883     -2335.8325     -1942.454     
    886000   298.91718      1207.8603     -2338.4922     -1952.4784    
    886500   309.01864     -619.29529     -2315.4324     -1915.3943    
    887000   305.02126      2146.0728     -2331.4633     -1937.5926    
    887500   298.76397      487.03464     -2304.2585     -1918.5356    
    888000   302.08147      1241.5576     -2301.1371     -1911.1033    
    888500   302.13778      604.45632     -2341.0703     -1950.7471    
    889000   285.56104     -580.94783     -2371.5426     -2003.0734    
    889500   298.24513      1205.8851     -2343.1117     -1958.5552    
    890000   293.39238      714.21163     -2315.9891     -1937.1494    
    890500   302.83444      909.60283     -2343.3799     -1952.395     
    891000   299.28291      2106.4061     -2311.2136     -1924.8032    
    891500   321.25506      258.33958     -2307.737      -1893.0083    
    892000   298.75229      667.54532     -2300.8685     -1915.6995    
    892500   303.68664      1824.524      -2333.8469     -1941.7095    
    893000   300.01196      56.338973     -2325.8054     -1939.2836    
    893500   307.78111      823.84695     -2291.0512     -1895.2016    
    894000   292.17259      1197.5639     -2316.7219     -1941.4376    
    894500   284.4868       863.53263     -2311.7009     -1944.145     
    895000   305.22655      2585.4473     -2288.8788     -1894.54      
    895500   314.45298      372.14495     -2324.5906     -1918.7229    
    896000   295.84108      1316.3743     -2332.843      -1950.9757    
    896500   306.77583      1309.547      -2320.7898     -1926.0899    
    897000   309.0558      -797.98054     -2301.5572     -1902.4811    
    897500   287.01848      397.04887     -2322.6558     -1952.3846    
    898000   311.7042       1039.5815     -2329.9138     -1927.621     
    898500   289.48636      2612.7979     -2286.9764     -1913.0255    
    899000   298.67495      1175.1364     -2333.3672     -1947.6886    
    899500   275.49285      1870.8628     -2296.8513     -1940.9868    
    900000   303.56855      2045.9174     -2303.8208     -1911.9906    
    900500   289.52706      799.77487     -2325.7164     -1951.9142    
    901000   311.63284      352.15116     -2304.4018     -1902.0727    
    901500   308.01122     -358.66224     -2311.4598     -1913.5497    
    902000   305.51846      1656.5997     -2335.0068     -1940.5925    
    902500   314.29291      2117.7905     -2292.6764     -1887.8345    
    903000   295.64059      409.8272      -2289.2331     -1907.4522    
    903500   307.35078     -406.2246      -2327.7025     -1932.743     
    904000   283.55731      133.33739     -2307.3294     -1941.9499    
    904500   300.16798      646.2915      -2278.7593     -1891.2913    
    905000   314.63761      170.72465     -2318.6281     -1912.4825    
    905500   306.09766      696.64851     -2336.3918     -1941.1702    
    906000   303.32811      759.53207     -2288.1058     -1896.4265    
    906500   301.8935       1874.5045     -2288.9779     -1899.1647    
    907000   307.64481      440.97771     -2325.9902     -1928.7635    
    907500   302.08828      1308.8498     -2303.8077     -1913.8342    
    908000   291.61505      697.21347     -2279.4404     -1902.8445    
    908500   297.3325       564.45413     -2331.885      -1947.9391    
    909000   289.66474      3184.7328     -2311.7214     -1937.717     
    909500   285.83626      609.17306     -2355.9871     -1986.9011    
    910000   286.57167     -8.8675623     -2316.824      -1946.7773    
    910500   299.00768      1793.2255     -2304.6405     -1918.5081    
    911000   319.28587      198.67545     -2288.8889     -1876.591     
    911500   311.46902      2109.5341     -2324.2521     -1922.036     
    912000   312.14089      1449.1319     -2332.5101     -1929.4173    
    912500   310.64308      368.22051     -2334.4542     -1933.2652    
    913000   282.66188      997.48771     -2342.5653     -1977.5574    
    913500   309.83604      650.33991     -2319.2624     -1919.1554    
    914000   299.63325      2370.9168     -2304.8171     -1917.8568    
    914500   307.4775       203.29322     -2310.8143     -1913.7824    
    915000   319.21416      1468.3811     -2292.5822     -1880.3581    
    915500   297.28446     -1018.9809     -2320.1932     -1936.3232    
    916000   296.72834      951.72188     -2304.0348     -1920.88      
    916500   313.64538      452.7928      -2279.7025     -1874.6634    
    917000   273.54699      457.28531     -2286.2067     -1932.8952    
    917500   306.44741      60.731183     -2320.6865     -1924.9761    
    918000   291.45725      889.45673     -2333.6742     -1957.2301    
    918500   293.00744      918.88886     -2314.1868     -1935.8567    
    919000   291.82462      1519.7577     -2293.0037     -1916.458     
    919500   307.1796      -359.54407     -2335.0249     -1938.3571    
    920000   293.40834      1510.0831     -2341.2112     -1962.3309    
    920500   294.06381      917.19536     -2297.4257     -1917.8129    
    921000   299.83181      1202.5017     -2293.6311     -1906.7622    
    921500   302.88232      2936.0043     -2335.2398     -1943.9535    
    922000   301.45085      1169.5323     -2314.673      -1925.8428    
    922500   293.43577      924.28728     -2264.6686     -1885.5768    
    923000   309.32302      2073.4898     -2299.3369     -1900.0209    
    923500   309.2689      -427.17858     -2341.1688     -1941.8338    
    924000   288.77614     -94.514291     -2310.7477     -1937.9717    
    924500   306.18385      1053.5448     -2327.2715     -1931.8495    
    925000   299.31876      361.68397     -2296.97       -1910.4497    
    925500   306.2963       1385.6249     -2261.107      -1865.5466    
    926000   296.51848      1669.3284     -2311.6573     -1928.8822    
    926500   313.01863      648.10943     -2337.6331     -1933.8618    
    927000   311.43541      359.52017     -2323.5008     -1921.6395    
    927500   296.61008      1218.1158     -2280.6276     -1897.9905    
    928000   283.98012      1802.9589     -2303.1269     -1936.3684    
    928500   292.15841      2662.8181     -2325.7301     -1948.2919    
    929000   321.91254      1498.9611     -2311.3168     -1895.467     
    929500   303.24887      1762.8432     -2304.144      -1912.6814    
    930000   296.88285      96.780619     -2335.494      -1952.1904    
    930500   296.87145      1145.9905     -2292.6352     -1910.375     
    931000   297.23848      1422.8613     -2279.8774     -1896.049     
    931500   311.98231      1248.4724     -2324.2002     -1923.3229    
    932000   282.77591      974.19897     -2318.979      -1955.6668    
    932500   297.11124      1324.9358     -2297.2261     -1914.3415    
    933000   302.20191      1765.7319     -2312.2337     -1923.2492    
    933500   292.83833      1994.7386     -2336.8637     -1958.7438    
    934000   308.31034      1889.8752     -2304.4857     -1906.1777    
    934500   307.27944      406.85521     -2318.4551     -1921.547     
    935000   291.4341       2979.181      -2338.4784     -1962.4695    
    935500   306.31149      377.64214     -2305.1237     -1909.6069    
    936000   316.2747       1104.2432     -2317.5911     -1909.2494    
    936500   311.15454      900.67897     -2347.0383     -1945.0242    
    937000   314.08271      1276.2139     -2324.8769     -1919.315     
    937500   305.71249      1543.0595     -2281.5387     -1886.8214    
    938000   291.68283     -667.62886     -2314.4239     -1937.9046    
    938500   291.34665      1053.6002     -2313.5027     -1937.4096    
    939000   316.66999      1403.3237     -2298.5213     -1889.7512    
    939500   310.20392      520.69799     -2306.9604     -1906.3743    
    940000   293.91316      1654.8026     -2321.4144     -1941.8929    
    940500   277.66445      354.71105     -2311.8316     -1953.2674    
    941000   290.11167      2966.6252     -2278.1994     -1903.5718    
    941500   313.27177      1933.2321     -2317.174      -1912.6135    
    942000   306.41408      644.36546     -2347.8344     -1952.2857    
    942500   297.76352      878.70243     -2305.3135     -1921.202     
    943000   301.35536     -292.16117     -2337.7192     -1948.835     
    943500   291.56979     -671.75478     -2327.5981     -1951.3425    
    944000   302.6148       2035.6823     -2311.9359     -1921.4196    
    944500   301.43954      288.73868     -2323.3139     -1934.288     
    945000   297.79513      129.74903     -2353.1985     -1968.7505    
    945500   332.19104      1131.8927     -2353.5785     -1924.992     
    946000   302.64109      12.451883     -2318.9878     -1928.1439    
    946500   300.49797     -348.27303     -2354.9495     -1966.8883    
    947000   307.52339      1261.6783     -2316.9493     -1919.8221    
    947500   302.70102      833.60104     -2302.213      -1911.4736    
    948000   308.4342       1436.3102     -2318.243      -1920.0951    
    948500   297.22206      658.08606     -2342.0475     -1958.3089    
    949000   290.16509      563.5962      -2313.6823     -1938.9898    
    949500   283.35466      613.57159     -2261.8509     -1896.0661    
    950000   297.6004       693.4099      -2314.1856     -1929.8662    
    950500   289.78718      1175.5552     -2328.8978     -1954.6637    
    951000   321.23457      351.48586     -2334.7709     -1919.9851    
    951500   313.1042       459.03323     -2304.3904     -1900.0762    
    952000   294.12688      2079.022      -2315.3782     -1935.6797    
    952500   301.6599       1451.9053     -2331.2842     -1941.8392    
    953000   286.04403      117.19653     -2357.0128     -1987.982     
    953500   283.54924      610.83696     -2336.2791     -1970.1705    
    954000   304.22984      704.6073      -2317.1289     -1924.612     
    954500   288.51819      2415.7218     -2306.9927     -1934.5226    
    955000   279.13756      1309.9291     -2322.1538     -1962.026     
    955500   314.98362      424.48569     -2305.9654     -1899.4875    
    956000   305.83178      1714.1487     -2325.6142     -1930.7431    
    956500   284.96382      1497.8923     -2327.5293     -1959.8464    
    957000   300.09853      440.33586     -2322.2716     -1934.9629    
    957500   299.60282      1763.8585     -2312.1017     -1925.23      
    958000   284.03077     -337.37167     -2315.9943     -1949.4181    
    958500   283.02549      495.74437     -2343.8375     -1978.3964    
    959000   303.05455      715.04177     -2315.9185     -1924.7748    
    959500   286.04964      1019.6879     -2300.9017     -1931.7954    
    960000   286.43447      924.77258     -2325.4291     -1955.7971    
    960500   306.26973     -137.0721      -2314.9812     -1919.7836    
    961000   308.81692      658.97361     -2322.765      -1924.1717    
    961500   273.97438      1979.5745     -2327.5567     -1973.7709    
    962000   298.99219      1107.6357     -2315.282      -1929.1495    
    962500   306.42096      1268.3751     -2313.9097     -1918.281     
    963000   280.30352      948.60997     -2341.1325     -1979.2774    
    963500   284.81913      1434.0638     -2307.7209     -1940.0448    
    964000   294.64009      1130.3327     -2303.0557     -1922.9407    
    964500   321.88953      644.99703     -2332.9085     -1917.3791    
    965000   299.55645      427.2849      -2295.5993     -1908.9545    
    965500   275.28733     -438.31014     -2306.6845     -1951.3181    
    966000   287.89569      443.18451     -2301.6744     -1929.9143    
    966500   314.65185      1349.9459     -2302.9911     -1896.6775    
    967000   296.88376      2121.5342     -2315.4134     -1932.0125    
    967500   293.09482      496.55858     -2344.7548     -1966.271     
    968000   297.88951      340.3538      -2356.2391     -1971.6006    
    968500   295.09347      3564.5267     -2318.1588     -1937.1926    
    969000   301.65824      707.93272     -2327.9517     -1938.5429    
    969500   314.13115      1098.9233     -2298.7974     -1893.565     
    970000   319.77298      1010.1486     -2354.1245     -1941.2399    
    970500   306.19092      1623.4138     -2337.3145     -1942.1538    
    971000   298.23992      1776.7223     -2296.1535     -1911.139     
    971500   309.91216      3076.0469     -2280.691      -1880.6976    
    972000   296.50625      1381.7432     -2317.0178     -1934.2577    
    972500   294.83484      738.95669     -2307.3515     -1926.9162    
    973000   324.19552      3191.9808     -2299.1371     -1880.5429    
    973500   294.72221      1043.8321     -2314.6615     -1934.1856    
    974000   297.38841      992.91197     -2310.1898     -1926.1651    
    974500   282.65592      752.21025     -2260.1187     -1895.4957    
    975000   315.70898      1229.2736     -2282.1136     -1874.201     
    975500   295.49611      909.51553     -2309.7865     -1928.044     
    976000   296.09049      2528.5452     -2302.7813     -1920.8273    
    976500   300.34428      474.29579     -2259.8638     -1872.3132    
    977000   300.83017     -532.14056     -2307.0516     -1918.6253    
    977500   300.3338       636.10517     -2325.0961     -1937.3516    
    978000   289.10866      1124.5379     -2306.1665     -1932.9254    
    978500   297.2374       1949.6599     -2305.2172     -1921.4676    
    979000   299.35925      1236.2645     -2327.6988     -1941.3188    
    979500   316.006        2613.6166     -2317.3657     -1909.3937    
    980000   308.12839      1080.5301     -2323.4272     -1925.3541    
    980500   294.28772      1937.1017     -2343.2103     -1963.4725    
    981000   297.67438      967.90286     -2303.8103     -1919.8178    
    981500   299.81603      2155.0001     -2297.3865     -1911.3202    
    982000   298.02851      691.35672     -2351.3706     -1967.084     
    982500   289.22334      1789.7988     -2324.5139     -1951.6319    
    983000   298.66684      1791.4166     -2321.9661     -1936.3102    
    983500   305.65727      1423.0094     -2283.9648     -1890.7054    
    984000   297.25726      378.1868      -2327.578      -1944.5539    
    984500   305.48237      59.771458     -2324.5598     -1930.8894    
    985000   318.59335      1347.0343     -2302.8236     -1892.6584    
    985500   288.05736     -283.36508     -2313.5492     -1942.3838    
    986000   299.83201      1285.9847     -2314.5327     -1928.3036    
    986500   308.3555       1702.3556     -2312.2888     -1915.2718    
    987000   301.29289      1587.2266     -2314.2091     -1926.3345    
    987500   299.09933      2150.3357     -2310.0412     -1925.784     
    988000   299.4683       1412.7936     -2326.9854     -1941.1003    
    988500   312.16168      1180.8878     -2317.5898     -1915.262     
    989000   307.46717      217.70426     -2278.4635     -1882.1806    
    989500   287.96341      265.40835     -2307.4697     -1936.4731    
    990000   296.51696      632.51701     -2326.717      -1944.5675    
    990500   302.95287      850.06639     -2281.9345     -1891.5671    
    991000   283.55543      357.45135     -2297.9331     -1932.5231    
    991500   291.45399      301.16456     -2308.6223     -1934.0338    
    992000   307.07841      2502.1286     -2293.6841     -1898.1284    
    992500   298.56839      861.87935     -2342.3938     -1958.4769    
    993000   304.97442      2204.8479     -2318.4769     -1926.3299    
    993500   308.94579      1792.2265     -2302.4858     -1905.0584    
    994000   286.40412     -476.93337     -2292.0133     -1923.5838    
    994500   307.67145      1444.3796     -2312.1848     -1916.7849    
    995000   278.05921      1536.0588     -2319.5372     -1962.3004    
    995500   311.43725      982.97257     -2326.0715     -1924.6855    
    996000   303.61742      1732.9601     -2303.4137     -1913.0639    
    996500   294.63398      752.68977     -2324.3625     -1945.4672    
    997000   295.11473      1484.4542     -2315.0165     -1935.2621    
    997500   303.42095      1619.8369     -2313.6766     -1922.6334    
    998000   311.41858      990.41445     -2307.33       -1905.9204    
    998500   297.86009     -284.13976     -2295.6272     -1911.0367    
    999000   291.95535      2928.5185     -2330.0089     -1952.9946    
    999500   300.29325      514.48238     -2295.4024     -1907.5814    
   1000000   308.05206      2561.0322     -2310.0964     -1913.3615    
   1000500   297.68563      82.06149      -2333.3139     -1949.8199    
   1001000   298.35812      1379.2689     -2324.0626     -1940.3167    
   1001500   277.41454     -597.86383     -2318.5515     -1960.3275    
   1002000   289.82741      2913.4596     -2301.1207     -1926.8436    
   1002500   323.65474      901.53521     -2308.5051     -1890.5803    
   1003000   304.33294      838.73758     -2278.5927     -1885.6519    
   1003500   298.90475      660.95581     -2319.1479     -1932.9445    
   1004000   299.21716      2848.6346     -2341.6104     -1956.8088    
   1004500   289.13178      1799.8141     -2364.5487     -1991.2557    
   1005000   296.69033     -212.22845     -2324.1531     -1941.6963    
   1005500   322.24896      971.74173     -2324.2061     -1908.0785    
   1006000   306.48031      652.31738     -2288.4685     -1893.3007    
   1006500   305.27692     -199.15461     -2333.4153     -1941.1081    
   1007000   298.14908      1831.5333     -2317.1095     -1933.1647    
   1007500   309.15613      295.50372     -2275.6042     -1877.5614    
   1008000   321.26333      1845.9624     -2291.778      -1878.5775    
   1008500   299.66646      102.97496     -2310.121      -1925.0657    
   1009000   292.56637      1935.7001     -2302.0814     -1925.8048    
   1009500   323.37468      1204.7014     -2295.8321     -1879.3506    
   1010000   297.04916      349.86959     -2318.0826     -1936.1591    
   1010500   303.48775      319.1245      -2312.7002     -1921.5176    
   1011000   299.24214      723.59808     -2282.2087     -1897.1843    
   1011500   324.06345      889.52204     -2307.2182     -1890.2158    
   1012000   288.99765      1595.5679     -2314.3365     -1942.6218    
   1012500   297.38707      1191.6077     -2304.2774     -1921.0562    
   1013000   311.73338      1594.1086     -2287.6698     -1885.9096    
   1013500   303.91858      913.65672     -2299.5625     -1907.9184    
   1014000   301.64086      472.08879     -2298.1367     -1910.418     
   1014500   294.67697      1211.1249     -2319.8016     -1940.6021    
   1015000   289.5625       503.59903     -2331.9686     -1958.7906    
   1015500   303.28293      882.8828      -2280.9269     -1890.4526    
   1016000   283.41242      1611.9789     -2289.1104     -1924.761     
   1016500   289.13432      1069.968      -2312.0715     -1939.3927    
   1017000   319.66598      220.87665     -2320.3894     -1908.5531    
   1017500   303.47311      1540.2268     -2268.5743     -1876.7283    
   1018000   285.01114      2714.9509     -2297.4428     -1929.3593    
   1018500   291.73577      1145.4008     -2311.4612     -1936.6601    
   1019000   296.622        2687.2749     -2280.5276     -1898.2096    
   1019500   301.90966      156.80274     -2303.9218     -1915.9852    
   1020000   289.04183     -553.43555     -2340.4019     -1967.8289    
   1020500   301.01316      44.489181     -2352.6677     -1964.7397    
   1021000   315.07051      1710.1803     -2342.3139     -1936.3264    
   1021500   308.24391     -190.25558     -2321.1871     -1924.615     
   1022000   321.07044      952.86696     -2321.3259     -1908.4369    
   1022500   288.12596     -206.6648      -2325.1723     -1953.8017    
   1023000   300.77001      1237.7528     -2290.5253     -1903.0846    
   1023500   306.19575      1474.7012     -2312.6596     -1917.9466    
   1024000   288.592        818.54812     -2329.8149     -1958.0869    
   1024500   306.53029     -366.79882     -2306.4812     -1911.3096    
   1025000   304.01189      457.57793     -2289.9508     -1898.2922    
   1025500   301.25771      776.7688      -2314.1388     -1926.534     
   1026000   293.47995     -552.91627     -2345.0927     -1966.7633    
   1026500   296.6116       782.83824     -2359.5314     -1976.5623    
   1027000   308.57285      1126.6434     -2320.9922     -1922.6106    
   1027500   297.40168      929.04825     -2308.6289     -1924.5933    
   1028000   282.93192      1728.1685     -2341.6184     -1976.2593    
   1028500   319.41485      1579.8227     -2345.5921     -1933.1612    
   1029000   291.06693      578.80758     -2297.026      -1920.9834    
   1029500   305.01082      1820.8162     -2294.119      -1900.2495    
   1030000   306.92104      472.96534     -2324.2726     -1928.0406    
   1030500   291.6135       1061.4144     -2336.3854     -1959.6424    
   1031000   291.09726      1356.9803     -2291.7795     -1915.8639    
   1031500   297.26279     -362.32877     -2298.3274     -1914.4354    
   1032000   286.89652      2217.5026     -2330.5877     -1959.8641    
   1032500   310.35221      1391.712      -2315.1262     -1914.9931    
   1033000   300.02581      2178.3571     -2317.597      -1931.3204    
   1033500   294.09428     -911.76955     -2348.984      -1970.7009    
   1034000   326.93678      1394.9795     -2333.7928     -1912.2744    
   1034500   297.90602      197.32155     -2290.8896     -1908.0343    
   1035000   290.31104     -610.3026      -2325.3599     -1951.1592    
   1035500   305.10115      1764.852      -2313.6438     -1919.7434    
   1036000   319.44542      2390.6899     -2268.7049     -1856.436     
   1036500   290.24188      621.22277     -2283.2389     -1908.4657    
   1037000   300.27989      1203.1942     -2322.2348     -1934.5534    
   1037500   298.1649       557.78641     -2364.8387     -1979.7964    
   1038000   278.91268      1302.2512     -2350.1571     -1989.9615    
   1038500   306.8296       1910.3036     -2332.3881     -1936.1363    
   1039000   291.53269      1195.0787     -2314.4208     -1937.9777    
   1039500   285.29393     -135.65685     -2330.7517     -1962.4118    
   1040000   302.30648      1232.3166     -2309.535      -1919.2785    
   1040500   304.21894      2361.4346     -2302.157      -1909.561     
   1041000   282.63068      919.55171     -2291.724      -1926.86      
   1041500   303.48936      762.56775     -2317.2783     -1925.5794    
   1042000   299.84073      1170.3208     -2346.3576     -1959.4601    
   1042500   301.65042      655.15117     -2365.6485     -1976.3895    
   1043000   298.95475      1674.805      -2306.0692     -1919.7728    
   1043500   319.99421      178.41664     -2336.6682     -1923.4349    
   1044000   277.66392     -402.96797     -2322.0687     -1963.3288    
   1044500   294.0627       994.67823     -2314.1261     -1934.6204    
   1045000   312.66911      1492.9781     -2318.9285     -1915.2518    
   1045500   292.33284      1397.5357     -2331.5664     -1955.0043    
   1046000   288.97713      1894.027      -2313.466      -1940.1121    
   1046500   284.45254      1241.6377     -2290.2043     -1922.7039    
   1047000   306.36639     -1434.9918     -2321.9156     -1926.3052    
   1047500   298.06217      284.00795     -2314.2812     -1929.3324    
   1048000   293.40956      2450.2216     -2335.0722     -1955.9751    
   1048500   299.49896      893.07351     -2311.0433     -1924.1028    
   1049000   317.09739      144.72368     -2328.6002     -1919.0141    
   1049500   292.50073      790.57651     -2321.4944     -1943.8033    
   1050000   310.78662      1356.9801     -2331.1258     -1930.2233    
   1050500   292.37562      429.98778     -2310.8654     -1933.7187    
   1051000   328.56429      1156.688      -2301.7725     -1877.8471    
   1051500   297.38047      2822.5265     -2320.8691     -1937.1454    
   1052000   288.83321      295.22793     -2324.1138     -1951.1508    
   1052500   329.8983       1002.8037     -2322.6223     -1896.8285    
   1053000   305.4871       620.92218     -2329.3559     -1935.2809    
   1053500   285.82766      883.22654     -2286.9472     -1917.9676    
   1054000   309.42985      1549.1643     -2291.122      -1891.598     
   1054500   308.29307      2096.4609     -2350.5563     -1952.4972    
   1055000   300.47392      1954.4193     -2332.5865     -1944.6207    
   1055500   311.21549      856.9146      -2305.9367     -1904.0305    
   1056000   291.33464      698.41629     -2300.9891     -1924.8178    
   1056500   286.26548      1326.1407     -2287.6659     -1918.0186    
   1057000   318.13822     -363.09032     -2341.0869     -1930.3038    
   1057500   297.25747      1554.7996     -2345.0368     -1961.2217    
   1058000   306.16345      193.60064     -2316.7003     -1921.4233    
   1058500   309.70469      1195.7268     -2303.3754     -1903.4736    
   1059000   278.73198      409.68114     -2324.5213     -1964.5997    
   1059500   286.37015     -558.0595      -2331.9297     -1962.1059    
   1060000   313.56933      312.48944     -2317.8667     -1912.992     
   1060500   296.3632       2092.8525     -2306.118      -1923.4388    
   1061000   281.85215     -881.05809     -2337.651      -1973.8453    
   1061500   296.52953      2040.5739     -2336.7212     -1953.9673    
   1062000   300.47649      573.10821     -2318.4041     -1930.4272    
   1062500   287.76167      1876.7231     -2332.7646     -1961.1461    
   1063000   290.19351      310.5538      -2373.8773     -1999.1429    
   1063500   289.73317      1095.6333     -2320.3225     -1946.196     
   1064000   315.27267      1779.468      -2330.1962     -1923.071     
   1064500   301.90286      822.65298     -2311.9564     -1922.1177    
   1065000   292.80237     -69.930673     -2328.077      -1949.9392    
   1065500   302.91604     -91.877303     -2318.1726     -1927.0336    
   1066000   300.68815      1637.6986     -2287.8761     -1899.6073    
   1066500   289.52579     -388.50206     -2309.6155     -1935.7289    
   1067000   321.20293      1414.8921     -2352.0081     -1937.282     
   1067500   302.08575      334.26388     -2334.6774     -1944.8126    
   1068000   265.92347      2960.0861     -2279.8902     -1936.7789    
   1068500   307.94966      3091.167      -2297.1571     -1899.277     
   1069000   294.42337      1312.753      -2311.7174     -1931.9178    
   1069500   293.24123      1746.5404     -2315.3775     -1937.1095    
   1070000   307.51439      965.96249     -2310.8164     -1913.5565    
   1070500   285.17673     -1679.164      -2341.9362     -1973.8998    
   1071000   304.95229      925.12854     -2326.082      -1932.5194    
   1071500   299.36183      1353.4677     -2311.3366     -1924.9626    
   1072000   300.46005     -1053.5031     -2360.1676     -1972.5648    
   1072500   287.01666      1064.0599     -2321.8036     -1951.1628    
   1073000   307.21         834.94865     -2320.9022     -1924.0128    
   1073500   283.91606      180.23602     -2313.7992     -1947.3837    
   1074000   306.17291      3076.3096     -2331.6113     -1936.3689    
   1074500   306.30169      917.95185     -2287.448      -1892.3211    
   1075000   299.20294      1379.7151     -2294.3106     -1908.0619    
   1075500   288.55539     -45.289044     -2319.3216     -1946.876     
   1076000   311.93531      2701.4393     -2303.0997     -1900.3619    
   1076500   306.32632      629.73604     -2311.6713     -1916.3332    
   1077000   302.40296     -93.274791     -2318.8567     -1928.753     
   1077500   301.68866      574.77207     -2294.9433     -1905.2257    
   1078000   317.50317      1384.9083     -2306.0357     -1896.36      
   1078500   306.21855      1615.542      -2331.5834     -1936.2069    
   1079000   298.86214      1403.0905     -2286.0164     -1900.1459    
   1079500   288.76902      567.53207     -2318.7833     -1945.7125    
   1080000   298.45539      2201.7356     -2347.377      -1962.1507    
   1080500   313.49488      869.20271     -2316.6912     -1912.0574    
   1081000   308.65498      2403.1882     -2297.8169     -1899.544     
   1081500   287.17837      783.14822     -2335.2554     -1964.6194    
   1082000   303.43873      452.5388      -2325.8537     -1934.3113    
   1082500   302.74642      424.73729     -2305.6193     -1914.8515    
   1083000   309.6185      -177.7915      -2315.3951     -1915.8073    
   1083500   290.42357      1156.0113     -2341.228      -1966.4724    
   1084000   305.46454      1782.3128     -2322.6928     -1928.3826    
   1084500   305.02522      471.8336      -2317.7426     -1924.1345    
   1085000   295.13784      1148.7029     -2299.0361     -1917.9931    
   1085500   313.34582      1233.7271     -2292.9812     -1888.4199    
   1086000   310.49378      441.52198     -2339.2076     -1938.4051    
   1086500   293.92562      2659.991      -2301.7755     -1922.3263    
   1087000   324.71419      841.02414     -2297.8621     -1878.5693    
   1087500   299.64277      505.88        -2322.3572     -1935.4123    
   1088000   304.04853      383.14867     -2347.6254     -1955.0975    
   1088500   302.1983       1329.4887     -2301.9944     -1911.888     
   1089000   322.28085     -226.78987     -2332.5379     -1916.5079    
   1089500   304.06375      356.4132      -2330.6719     -1938.0467    
   1090000   312.70848     -257.14091     -2331.2251     -1927.4972    
   1090500   296.06549      506.32375     -2321.4854     -1939.2357    
   1091000   313.53185     -144.7208      -2318.4958     -1913.6804    
   1091500   292.65559      753.42391     -2279.8976     -1902.0331    
   1092000   281.20102      1111.2721     -2329.564      -1966.4481    
   1092500   305.2162       1172.564      -2328.0492     -1933.9939    
   1093000   302.7082      -80.818314     -2297.632      -1906.9322    
   1093500   320.43193      1530.896      -2269.8458     -1856.2725    
   1094000   298.57101      122.01896     -2292.5566     -1907.0046    
   1094500   296.85266      378.13503     -2324.7261     -1941.3842    
   1095000   301.76751      881.50166     -2356.9117     -1967.2956    
   1095500   290.62985      2602.1709     -2339.8797     -1964.7243    
   1096000   309.30302      1921.9591     -2319.4425     -1920.0965    
   1096500   322.92466      1739.5551     -2320.6429     -1903.6762    
   1097000   279.36573      1360.0149     -2314.2641     -1953.5981    
   1097500   290.10449      429.43952     -2320.4278     -1945.9211    
   1098000   314.91704      1485.1722     -2308.8034     -1902.2298    
   1098500   317.51494      1198.4135     -2353.4224     -1943.4525    
   1099000   311.5965       1815.4725     -2355.5508     -1953.1614    
   1099500   302.88647      1285.48       -2321.4201     -1930.3128    
   1100000   312.53102      1425.4102     -2309.5586     -1906.0135    
   1100500   296.84294      1144.1373     -2348.2339     -1965.0565    
   1101000   282.63892      1615.2681     -2287.3328     -1922.4696    
   1101500   316.57743      1371.3781     -2299.4064     -1890.7244    
   1102000   283.60601      1640.5923     -2291.0587     -1924.8054    
   1102500   294.76021     -46.967498     -2305.9935     -1925.3327    
   1103000   307.99818      680.04819     -2312.7986     -1915.212     
   1103500   299.83082      1681.8212     -2319.8171     -1932.7636    
   1104000   292.72596      815.23688     -2319.0915     -1941.4762    
   1104500   298.46082      1278.642      -2294.2006     -1909.0111    
   1105000   310.27009      852.22198     -2319.7135     -1919.3191    
   1105500   308.61243      1512.2379     -2316.0896     -1917.6432    
   1106000   310.05556      1986.4777     -2281.9357     -1881.6804    
   1106500   302.02759      2393.8441     -2308.1377     -1918.2325    
   1107000   293.39967      562.8796      -2324.1589     -1945.3842    
   1107500   303.63924      1493.2373     -2278.7878     -1886.8377    
   1108000   291.88759      1540.0859     -2293.2621     -1916.4425    
   1108500   303.9369       1190.5104     -2331.7346     -1939.1016    
   1109000   295.69291      1194.2224     -2320.1058     -1939.5024    
   1109500   301.32004      1044.2684     -2337.9314     -1949.6727    
   1110000   294.40626      1041.2515     -2272.7075     -1893.2827    
   1110500   305.71069      617.64429     -2317.8708     -1923.8165    
   1111000   291.02997      1582.1086     -2324.5193     -1949.402     
   1111500   306.69609      236.63258     -2313.7496     -1919.6193    
   1112000   296.97327      1791.2411     -2305.6262     -1923.9086    
   1112500   284.87277      1464.2876     -2306.8005     -1939.1543    
   1113000   325.57565      1170.2785     -2324.1233     -1903.5165    
   1113500   280.78181     -299.99406     -2320.6223     -1958.0318    
   1114000   301.59475      894.66551     -2328.7912     -1939.8417    
   1114500   315.88806      1077.2687     -2319.2585     -1911.1662    
   1115000   325.17456      277.33281     -2355.54       -1935.6806    
   1115500   277.99041     -651.40914     -2340.6916     -1981.7033    
   1116000   284.84633      317.77452     -2297.8125     -1929.9906    
   1116500   301.39714     -394.9412      -2318.3158     -1929.2219    
   1117000   291.19417     -716.08715     -2341.661      -1965.418     
   1117500   296.92302      3124.8648     -2305.8909     -1922.5339    
   1118000   310.40038      2017.9934     -2307.4586     -1906.6495    
   1118500   270.97777      394.69571     -2301.7821     -1951.9522    
   1119000   299.26425      1511.2664     -2313.5645     -1927.0035    
   1119500   299.12117      987.95178     -2304.1296     -1917.9659    
   1120000   273.92337     -375.27173     -2302.5106     -1948.7923    
   1120500   301.51095      185.3194      -2321.2135     -1931.9208    
   1121000   311.142        587.54562     -2308.6589     -1906.9731    
   1121500   293.62575      883.7909      -2324.4325     -1945.4296    
   1122000   282.17004      838.94        -2355.3626     -1991.0432    
   1122500   293.30973      1039.31       -2329.7087     -1950.9915    
   1123000   311.64847      851.12103     -2317.2533     -1914.8623    
   1123500   299.22377      1276.5447     -2330.7949     -1944.6572    
   1124000   289.48599     -713.99931     -2340.3489     -1966.5419    
   1124500   291.93681      1385.4864     -2307.6043     -1930.6455    
   1125000   300.19096      782.52788     -2313.2891     -1925.6749    
   1125500   321.19545      62.518471     -2302.3993     -1887.6789    
   1126000   291.17576      1612.5277     -2302.8874     -1926.9893    
   1126500   303.97675      3368.2811     -2318.8836     -1926.4637    
   1127000   292.16603      1123.4699     -2321.3095     -1944.0295    
   1127500   300.47036      792.44826     -2355.8869     -1967.9047    
   1128000   301.45079      1349.4602     -2315.0593     -1925.9252    
   1128500   303.11067      397.55079     -2328.2435     -1936.9106    
   1129000   281.3182       1394.2879     -2342.489      -1979.2156    
   1129500   306.24167      971.20602     -2324.1906     -1928.7486    
   1130000   302.06481      1419.0526     -2314.6177     -1924.5682    
   1130500   281.83066     -134.40559     -2305.7219     -1941.7803    
   1131000   311.33411      1461.2973     -2298.7108     -1896.4361    
   1131500   303.45147     -11.593938     -2319.0274     -1927.1735    
   1132000   294.96708      2279.8618     -2314.3706     -1935.3847    
   1132500   290.38734      1091.5196     -2333.1793     -1958.833     
   1133000   285.39967      1105.1662     -2342.1114     -1974.7557    
   1133500   297.05339      176.7881      -2307.7932     -1924.4176    
   1134000   280.84688      838.89326     -2293.4286     -1932.1021    
   1134500   283.33131      1196.5364     -2336.7226     -1970.9251    
   1135000   304.23071      1343.5715     -2308.0304     -1914.9193    
   1135500   291.94459      560.94614     -2287.5252     -1911.3983    
   1136000   315.06188      515.1163      -2318.7035     -1912.3576    
   1136500   276.49791      701.86759     -2306.5102     -1949.5182    
   1137000   305.25417      1358.1897     -2293.037      -1898.8859    
   1137500   302.90072     -975.5279      -2302.9673     -1911.5676    
   1138000   305.83463      845.76545     -2321.3586     -1926.4996    
   1138500   298.49856      232.86723     -2295.6306     -1909.9686    
   1139000   316.03256      661.69865     -2281.4851     -1873.7023    
   1139500   313.03479      574.35981     -2330.2659     -1926.946     
   1140000   301.9175       749.40089     -2335.8153     -1945.9545    
   1140500   297.37248     -1013.4829     -2374.1252     -1990.2543    
   1141000   310.01701      2679.3976     -2335.5758     -1935.2671    
   1141500   307.77452      1031.9077     -2319.157      -1921.7652    
   1142000   304.66627     -1015.295      -2323.0069     -1929.7091    
   1142500   299.41373      1153.4743     -2339.1862     -1952.5963    
   1143000   303.27074     -526.34653     -2301.9871     -1910.384     
   1143500   306.83687     -819.09877     -2302.478      -1906.3031    
   1144000   304.04268     -634.73447     -2331.0343     -1938.455     
   1144500   292.93396      990.97592     -2350.7192     -1972.4801    
   1145000   326.31553      983.43397     -2343.973      -1922.5943    
   1145500   286.67445      1330.2979     -2294.6825     -1924.509     
   1146000   305.65129      1273.6783     -2319.1277     -1924.4816    
   1146500   290.85356     -681.24061     -2331.7169     -1956.2826    
   1147000   307.86857      1384.2114     -2293.8112     -1896.6593    
   1147500   294.90784      1284.325      -2295.5159     -1914.7937    
   1148000   285.89558     -229.95243     -2324.4992     -1955.319     
   1148500   294.8587       449.49319     -2345.2149     -1964.4924    
   1149000   310.7693       1238.1599     -2315.1498     -1913.8805    
   1149500   289.45662      50.454516     -2322.6091     -1948.9306    
   1150000   272.77365      552.92549     -2355.2231     -2002.9466    
   1150500   298.79158      250.28991     -2332.4329     -1946.6354    
   1151000   305.32955      1810.0183     -2308.8999     -1914.6201    
   1151500   312.15333      418.06243     -2342.7262     -1939.8427    
   1152000   290.5197       1632.3324     -2323.5959     -1948.4482    
   1152500   292.3126       1195.8484     -2305.8247     -1928.3412    
   1153000   308.84091     -351.07374     -2341.0163     -1942.2365    
   1153500   295.30115     -284.70252     -2359.8177     -1978.3223    
   1154000   296.67842      655.31457     -2306.5388     -1923.4414    
   1154500   313.56428      3149.5273     -2311.053      -1906.2144    
   1155000   276.12012      1380.3883     -2316.7206     -1960.3266    
   1155500   296.71231      897.30698     -2318.613      -1935.785     
   1156000   323.79848      989.30178     -2322.8847     -1904.7954    
   1156500   290.49322      283.5504      -2294.7513     -1919.756     
   1157000   303.55738      2818.2687     -2326.3642     -1934.4057    
   1157500   267.07024      2351.165      -2322.9122     -1977.9926    
   1158000   296.0161       303.22882     -2320.8969     -1938.6357    
   1158500   297.65533      1386.615      -2310.7759     -1926.4622    
   1159000   299.12281      337.67912     -2312.9239     -1926.6287    
   1159500   286.21583      628.36192     -2330.1663     -1960.5782    
   1160000   300.98235      425.38581     -2337.3568     -1948.7061    
   1160500   301.3958       2363.5632     -2299.3968     -1910.2072    
   1161000   310.18707     -212.68549     -2331.2587     -1930.706     
   1161500   308.89869     -64.68104      -2356.6006     -1957.7633    
   1162000   300.17778      1491.0579     -2295.3071     -1907.7118    
   1162500   321.16318      1994.3334     -2339.7748     -1925.1013    
   1163000   283.27408      488.41399     -2315.5113     -1949.7729    
   1163500   316.45894      1657.9512     -2297.3198     -1888.7173    
   1164000   311.33906     -234.90793     -2329.2073     -1927.3122    
   1164500   304.9138      -1276.1339     -2347.0272     -1953.3094    
   1165000   307.39876      132.83845     -2290.9415     -1893.9845    
   1165500   316.5701       1270.8856     -2325.4545     -1917.0345    
   1166000   293.36981      334.87713     -2316.3549     -1937.7845    
   1166500   299.52004     -74.805523     -2304.9174     -1918.5368    
   1167000   307.75917      1017.9787     -2273.3342     -1876.0438    
   1167500   296.33284      2170.2842     -2300.8523     -1918.4914    
   1168000   289.87796      2665.9318     -2311.6001     -1937.3865    
   1168500   308.94672      617.31465     -2336.637      -1937.8847    
   1169000   312.98472      645.48708     -2315.3183     -1911.2803    
   1169500   295.76398      559.98422     -2307.4469     -1925.7821    
   1170000   299.7789       1043.8594     -2355.4931     -1968.7287    
   1170500   298.6299       1455.9135     -2306.0426     -1920.5256    
   1171000   292.42333      1100.4164     -2280.1787     -1902.5764    
   1171500   285.44864     -409.8423      -2310.4148     -1941.8599    
   1172000   286.9397       2042.366      -2328.5286     -1958.0878    
   1172500   284.63772      616.49614     -2299.7303     -1932.2021    
   1173000   303.63044      251.56284     -2305.578      -1913.5787    
   1173500   301.67115      797.28535     -2299.8513     -1910.3922    
   1174000   300.30325      69.235782     -2345.6423     -1957.8826    
   1174500   277.33241      1735.1364     -2310.1147     -1952.0463    
   1175000   296.72462     -1625.5625     -2298.6363     -1915.6075    
   1175500   309.6193      -498.21828     -2317.8678     -1918.1594    
   1176000   297.22982      1836.5573     -2338.1639     -1954.6377    
   1176500   297.32713     -381.12966     -2278.406      -1894.873     
   1177000   283.93789      1688.5835     -2275.4512     -1908.8507    
   1177500   291.99036      849.21815     -2323.4917     -1946.462     
   1178000   279.94646      935.56481     -2353.8845     -1992.4819    
   1178500   288.24728      2010.7203     -2310.1097     -1937.9682    
   1179000   298.61895      616.34444     -2308.251      -1922.9789    
   1179500   292.44526      2124.3397     -2305.1138     -1927.5729    
   1180000   302.86534      302.18982     -2341.7265     -1950.5893    
   1180500   299.47808      1015.8673     -2302.3242     -1915.7167    
   1181000   302.99584      899.20114     -2294.4096     -1903.1413    
   1181500   295.52827      913.66773     -2334.4457     -1952.9142    
   1182000   281.44883      823.23804     -2308.6345     -1945.1407    
   1182500   308.77672      1139.2683     -2295.826      -1897.1931    
   1183000   304.43019      1259.3542     -2310.1341     -1917.0508    
   1183500   289.04339      1302.3779     -2305.9543     -1933.1014    
   1184000   304.8126       1390.1201     -2317.2003     -1923.8371    
   1184500   295.12452      677.66485     -2302.0293     -1920.9271    
   1185000   296.36168      1272.6682     -2344.3453     -1961.7805    
   1185500   297.33794      936.91672     -2312.1515     -1928.3826    
   1186000   302.4655       1996.4347     -2309.9146     -1919.3738    
   1186500   284.23829      481.43315     -2292.5363     -1925.5605    
   1187000   295.4089       1708.0732     -2345.1251     -1963.6766    
   1187500   304.17484      1477.2136     -2296.4559     -1903.5016    
   1188000   312.44494      1593.657      -2321.42       -1918.0655    
   1188500   281.41985      454.10558     -2297.8919     -1934.2604    
   1189000   296.58795      1768.0372     -2290.2103     -1907.5372    
   1189500   301.56475      1236.6664     -2306.4494     -1917.0552    
   1190000   307.44816      73.418714     -2325.8613     -1928.9102    
   1190500   298.30864      1693.2665     -2287.7051     -1902.554     
   1191000   292.64476      746.80083     -2269.6759     -1891.8184    
   1191500   278.13537      578.28292     -2304.173      -1945.0436    
   1192000   304.47737     -128.7533      -2312.5851     -1919.5388    
   1192500   308.0574       859.07876     -2273.0535     -1875.2602    
   1193000   310.08326      1621.5552     -2327.8759     -1927.5524    
   1193500   281.12075      534.79607     -2305.1673     -1942.1349    
   1194000   320.73131      1844.0904     -2310.0286     -1895.9211    
   1194500   298.6861       727.57202     -2313.4843     -1927.8134    
   1195000   295.20604      412.40664     -2332.2098     -1951.0028    
   1195500   311.83667      1844.4129     -2321.8671     -1919.237     
   1196000   307.46009     -135.63003     -2306.8625     -1909.8047    
   1196500   297.5711       660.05735     -2326.2459     -1942.019     
   1197000   309.41878      1391.3606     -2324.9106     -1925.3854    
   1197500   307.01582      1214.2751     -2287.9843     -1891.5771    
   1198000   304.18008     -114.50754     -2313.7434     -1921.0373    
   1198500   307.34035      1422.2938     -2321.4154     -1924.5942    
   1199000   289.26359      809.9312      -2320.0094     -1946.481     
   1199500   302.98054      1569.2434     -2312.9014     -1921.6776    
   1200000   326.5248       1595.1703     -2308.8814     -1887.2621    
   1200500   303.12128      866.86762     -2334.0522     -1942.6865    
   1201000   296.07562      1553.0484     -2305.1441     -1922.8243    
   1201500   307.9879       126.56991     -2303.1035     -1905.3944    
   1202000   284.21486      219.60303     -2323.6047     -1956.6982    
   1202500   307.77731      1976.4505     -2312.6009     -1915.251     
   1203000   291.39726     -419.5832      -2278.9785     -1902.9269    
   1203500   294.54721      1124.7319     -2329.248      -1948.9024    
   1204000   298.86182      1342.7374     -2325.0121     -1939.4939    
   1204500   291.25775      1087.6452     -2308.8008     -1932.6062    
   1205000   277.46413     -149.49954     -2296.1601     -1938.261     
   1205500   297.97001      1880.6884     -2299.7231     -1915.0118    
   1206000   312.50054      671.90084     -2287.1075     -1883.9758    
   1206500   310.16767     -12.569343     -2332.36       -1932.0008    
   1207000   293.99231      1106.6221     -2329.1828     -1949.5584    
   1207500   307.68221      1565.2173     -2331.6209     -1934.3253    
   1208000   305.75833      1455.5535     -2297.564      -1902.7076    
   1208500   285.72511      2425.3187     -2324.1684     -1955.2223    
   1209000   308.66201      1004.185      -2326.0645     -1927.6284    
   1209500   313.91386     -89.263772     -2325.4459     -1920.0769    
   1210000   313.44598      1847.7016     -2336.9828     -1932.2606    
   1210500   305.42633      1420.7166     -2316.1606     -1921.7766    
   1211000   323.40249     -396.70268     -2307.6893     -1890.1548    
   1211500   279.00978      1000.4567     -2304.0384     -1943.7572    
   1212000   303.34458      1590.3818     -2332.2492     -1940.5616    
   1212500   303.33395      1961.3244     -2315.7982     -1924.1245    
   1213000   298.91632      40.704397     -2323.5517     -1937.5796    
   1213500   303.36139      293.83908     -2336.9772     -1945.2528    
   1214000   311.15921      493.73594     -2299.4002     -1897.6147    
   1214500   291.72151      688.80657     -2293.5874     -1916.8993    
   1215000   299.78829      950.80809     -2348.8943     -1961.8585    
   1215500   280.06436      327.01854     -2306.8301     -1945.2349    
   1216000   290.94144     -84.733439     -2293.7143     -1918.0218    
   1216500   318.51128      971.33861     -2293.5557     -1882.2387    
   1217000   300.60182      1457.039      -2324.2331     -1936.0419    
   1217500   298.74212      522.68374     -2319.8862     -1934.103     
   1218000   305.65949      3932.9896     -2280.1488     -1885.4491    
   1218500   312.12395      2685.7252     -2323.3598     -1920.3061    
   1219000   290.19517      330.83572     -2312.9502     -1938.2157    
   1219500   317.8731       1262.7851     -2316.553      -1906.071     
   1220000   327.22994      1213.8252     -2330.9812     -1908.5708    
   1220500   295.79354      1542.7241     -2326.1272     -1944.1928    
   1221000   296.1999       786.12567     -2299.5465     -1917.0563    
   1221500   313.53705      1414.5341     -2267.4048     -1862.5478    
   1222000   309.96229      963.56099     -2304.5784     -1904.301     
   1222500   301.90882      540.64293     -2336.7393     -1946.8898    
   1223000   311.16961      2036.8676     -2317.6799     -1915.9723    
   1223500   307.94203      358.42523     -2316.1222     -1918.7698    
   1224000   303.44378      527.15452     -2341.5204     -1950.0797    
   1224500   290.0679       727.13296     -2271.3525     -1897.1079    
   1225000   310.36591      1440.3313     -2302.4359     -1901.7782    
   1225500   308.3428      -1091.8527     -2339.0345     -1941.0318    
   1226000   300.87012      1706.5695     -2332.0357     -1943.5138    
   1226500   324.49297      1897.1458     -2305.9387     -1886.9304    
   1227000   281.16481      1455.7326     -2308.0634     -1945.1045    
   1227500   300.16717      902.0138      -2316.5244     -1929.2248    
   1228000   311.54972      2102.9026     -2304.2427     -1902.2378    
   1228500   308.55549     -170.82052     -2358.0858     -1959.5165    
   1229000   320.77105      584.17703     -2341.8462     -1927.7146    
   1229500   290.24327      2645.39       -2298.4504     -1924.0568    
   1230000   283.30653     -92.473887     -2325.8632     -1960.142     
   1230500   291.36077      849.31714     -2327.424      -1951.2385    
   1231000   294.66891      3324.5918     -2295.2988     -1914.8967    
   1231500   298.51178      545.60333     -2318.5543     -1933.1928    
   1232000   270.88978     -295.91805     -2319.7211     -1970.3002    
   1232500   309.44416     -25.076152     -2319.4638     -1920.2868    
   1233000   307.14012      867.02433     -2338.183      -1941.6342    
   1233500   291.79413      699.74592     -2328.8573     -1952.0238    
   1234000   304.05389      257.01409     -2291.9474     -1899.607     
   1234500   292.40782      843.64716     -2312.7952     -1935.3118    
   1235000   296.27115      376.03717     -2327.0117     -1944.647     
   1235500   299.64888      401.61038     -2294.2196     -1907.3637    
   1236000   301.0715       2206.4772     -2301.6427     -1912.9879    
   1236500   281.56647      1058.1401     -2329.074      -1965.4229    
   1237000   311.55382      1825.8417     -2325.6662     -1923.3547    
   1237500   303.32524      3025.9624     -2306.1824     -1914.5327    
   1238000   278.45022      905.57756     -2339.6359     -1980.05      
   1238500   287.15815      1656.4733     -2305.2405     -1934.4395    
   1239000   305.03993      828.74412     -2326.1067     -1932.3146    
   1239500   281.17819      1712.756      -2335.1217     -1971.9881    
   1240000   290.48371      715.7773      -2319.6738     -1944.5445    
   1240500   321.71143      1331.5333     -2325.8259     -1910.476     
   1241000   287.37265      1044.172      -2313.7411     -1942.5556    
   1241500   290.08144      1586.2935     -2327.2273     -1953.0109    
   1242000   312.83274      1163.7132     -2312.8519     -1908.9461    
   1242500   314.45964      1212.3938     -2308.0747     -1902.0804    
   1243000   285.61187     -61.5906       -2310.3118     -1941.6746    
   1243500   297.53161      541.28951     -2321.5166     -1937.3742    
   1244000   333.37752      1198.0619     -2325.7423     -1895.3365    
   1244500   302.39063      79.964945     -2309.9787     -1919.6971    
   1245000   302.43861      1991.2336     -2316.6898     -1926.3885    
   1245500   277.38252      247.7552      -2332.3789     -1974.2487    
   1246000   308.74223      52.745909     -2328.0557     -1929.4836    
   1246500   304.80972      1009.7025     -2313.5888     -1920.3764    
   1247000   304.12121      1600.5594     -2335.8275     -1943.4949    
   1247500   284.27698      1233.9752     -2328.9921     -1962.0212    
   1248000   308.74655      559.16688     -2307.9476     -1909.6367    
   1248500   307.34813      902.01763     -2338.7567     -1941.9748    
   1249000   286.83664      1464.3124     -2331.6575     -1961.5396    
   1249500   308.67045      1294.6509     -2294.5949     -1895.8485    
   1250000   310.87075      2323.6526     -2319.4205     -1918.289     
   1250500   301.66635     -273.30644     -2328.2888     -1938.9181    
   1251000   303.22434      971.35151     -2297.086      -1905.6047    
   1251500   310.87379      2276.6871     -2317.889      -1916.6598    
   1252000   304.55911     -98.726894     -2344.1607     -1950.9075    
   1252500   282.69308      1412.6044     -2359.9154     -1995.0784    
   1253000   291.72402      1291.2433     -2316.0659     -1939.4851    
   1253500   308.04261      27.437687     -2308.4185     -1910.7159    
   1254000   294.76628      1448.7314     -2333.7352     -1953.4936    
   1254500   303.85079      1056.2771     -2329.1494     -1936.8366    
   1255000   326.2689       671.53502     -2321.5857     -1900.235     
   1255500   309.66373     -222.68656     -2345.0375     -1945.2944    
   1256000   292.44958     -331.74077     -2312.9256     -1935.2196    
   1256500   316.62827      1298.7491     -2290.8988     -1882.0158    
   1257000   301.53736     -280.31943     -2312.6451     -1923.2792    
   1257500   305.59049      244.43253     -2333.8648     -1939.2533    
   1258000   320.259        619.77544     -2330.5535     -1917.0172    
   1258500   317.40689      995.12942     -2274.8216     -1865.0261    
   1259000   310.75419      479.87361     -2322.8199     -1921.6527    
   1259500   287.37335      1236.9921     -2323.2685     -1952.1737    
   1260000   289.43879      1646.3819     -2285.879      -1912.1994    
   1260500   309.28976      1783.1022     -2300.6646     -1901.2268    
   1261000   280.74162     -465.4167      -2304.9662     -1942.4041    
   1261500   287.65846      622.63944     -2311.2578     -1939.8218    
   1262000   298.55358      184.56996     -2327.0577     -1941.5342    
   1262500   297.71037     -420.77609     -2310.2749     -1925.8481    
   1263000   305.54113      480.95193     -2285.1498     -1890.618     
   1263500   281.97644      447.76974     -2318.3691     -1954.2457    
   1264000   308.68721      1106.8768     -2328.143      -1929.4807    
   1264500   312.56589      150.23651     -2332.0151     -1928.4189    
   1265000   285.80606      1847.5123     -2340.9637     -1971.8811    
   1265500   295.21169      1232.9269     -2298.2688     -1917.0582    
   1266000   309.22315      518.9314      -2308.3246     -1909.0126    
   1266500   310.57106      1252.4565     -2345.3857     -1944.3274    
   1267000   281.91682      1652.8527     -2325.8188     -1961.7546    
   1267500   307.75507      158.30605     -2333.5616     -1936.1509    
   1268000   304.25441      1115.4719     -2342.1345     -1949.2278    
   1268500   292.10541      674.86982     -2363.1481     -1985.9156    
   1269000   302.31247      248.15965     -2316.1399     -1925.7623    
   1269500   281.95129      2367.5881     -2304.9626     -1940.802     
   1270000   300.01014      1618.4599     -2359.6363     -1972.3256    
   1270500   298.2103       875.73027     -2313.7415     -1928.7607    
   1271000   293.99934      1210.6894     -2286.2327     -1906.5956    
   1271500   285.62125     -377.08382     -2314.5031     -1945.7642    
   1272000   292.87148     -518.72544     -2342.0096     -1963.8784    
   1272500   305.76912      76.874753     -2298.0331     -1903.2994    
   1273000   308.30301      1734.2981     -2337.6849     -1939.6046    
   1273500   299.43893      1667.3165     -2327.3116     -1940.7002    
   1274000   309.71709      3365.783      -2296.0483     -1896.105     
   1274500   297.50214      971.18688     -2307.6424     -1923.4805    
   1275000   283.0555      -186.80858     -2330.4889     -1965.0533    
   1275500   315.08941     -171.18914     -2314.8753     -1908.1161    
   1276000   324.90175      927.46678     -2334.06       -1914.603     
   1276500   303.22519      924.55671     -2342.4937     -1950.9617    
   1277000   292.40185      2175.5406     -2312.9786     -1935.699     
   1277500   297.19756      1163.671      -2318.2391     -1934.5949    
   1278000   324.07692      964.37551     -2301.4747     -1883.0726    
   1278500   301.44948      166.34222     -2328.2022     -1938.7826    
   1279000   293.93877      414.70216     -2305.3573     -1925.6441    
   1279500   309.2178       1003.8358     -2289.0869     -1889.6811    
   1280000   297.23369      641.5181      -2319.8414     -1935.9772    
   1280500   299.17603      1827.2529     -2325.3435     -1939.0888    
   1281000   313.65974      1477.8823     -2295.1443     -1890.1778    
   1281500   303.13386      560.44674     -2294.7908     -1903.4899    
   1282000   302.4102       2143.2162     -2304.8834     -1914.4292    
   1282500   279.03504      473.39114     -2318.3745     -1957.8306    
   1283000   318.08545      1694.7592     -2311.1213     -1900.3447    
   1283500   297.88533      0.044692856   -2305.3614     -1920.7603    
   1284000   286.24241      1380.9136     -2324.6595     -1954.9371    
   1284500   302.38163     -227.04305     -2297.2922     -1906.9261    
   1285000   306.2369       718.0636      -2280.7834     -1885.461     
   1285500   296.60974      854.44315     -2318.859      -1935.9625    
   1286000   301.70698      1503.2544     -2345.6209     -1955.8275    
   1286500   278.26918      111.53464     -2344.2846     -1984.9986    
   1287000   293.25239     -1229.5499     -2306.8061     -1929.6495    
   1287500   297.41228      2930.0721     -2284.3499     -1901.6512    
   1288000   303.33178      513.58592     -2330.7875     -1940.5906    
   1288500   278.09748      2264.7686     -2316.2276     -1957.0799    
   1289000   309.31754      1598.3788     -2299.5719     -1900.5361    
   1289500   282.99991      62.056678     -2309.2362     -1944.175     
   1290000   307.54169      2130.1987     -2356.6349     -1959.5693    
   1290500   295.90771      1937.879      -2304.1096     -1921.7852    
   1291000   310.6205       1210.0639     -2309.5606     -1908.4633    
   1291500   287.81785      1183.4652     -2342.0089     -1970.1597    
   1292000   301.31009      2385.5452     -2329.0987     -1940.3925    
   1292500   309.40045      1275.1759     -2321.7433     -1922.5859    
   1293000   287.21108      569.13105     -2325.8868     -1955.069     
   1293500   302.20866     -716.59731     -2310.2301     -1920.3039    
   1294000   302.03712      649.88948     -2280.0155     -1890.059     
   1294500   309.29145     -238.35048     -2324.4347     -1925.1893    
   1295000   289.91892      2885.4978     -2311.1684     -1936.8504    
   1295500   317.09517     -531.43949     -2314.251      -1905.0844    
   1296000   292.1752       709.87265     -2328.4366     -1951.1586    
   1296500   304.05785     -22.523435     -2328.9052     -1936.2827    
   1297000   309.93187      1009.2387     -2301.8458     -1901.6733    
   1297500   304.6057       1488.421      -2347.9757     -1954.5957    
   1298000   281.05722      76.854731     -2295.8745     -1932.9489    
   1298500   318.30086      890.0409      -2330.0087     -1919.0272    
   1299000   299.06924      1976.5554     -2334.3002     -1948.1574    
   1299500   300.34504      477.61247     -2381.0355     -1993.2118    
   1300000   299.98052      1886.7535     -2326.6787     -1939.3268    
   1300500   297.38273      672.00776     -2314.9993     -1930.9823    
   1301000   328.25154      253.76742     -2311.08       -1887.2247    
   1301500   290.18335      902.11378     -2293.4778     -1918.8768    
   1302000   289.85725      2293.2935     -2309.4629     -1935.1714    
   1302500   280.52849      256.09315     -2341.9467     -1979.7181    
   1303000   306.63678      518.09788     -2328.3509     -1932.4276    
   1303500   288.17725      2094.2361     -2306.3532     -1934.245     
   1304000   295.76472      1516.6074     -2333.2976     -1951.4722    
   1304500   296.16188      683.00928     -2316.243      -1933.8438    
   1305000   308.2085       164.56987     -2307.1904     -1909.2787    
   1305500   288.25836     -300.99526     -2337.66       -1965.6217    
   1306000   291.42622      1917.7516     -2329.5216     -1953.2577    
   1306500   306.49611     -904.36196     -2303.7791     -1908.0916    
   1307000   304.72618      1439.8048     -2302.3118     -1908.8632    
   1307500   303.04617      790.62418     -2338.7612     -1947.551     
   1308000   278.42978     -921.25796     -2327.9383     -1968.6975    
   1308500   303.04439      2334.3107     -2302.9384     -1911.9886    
   1309000   305.80509      2549.7152     -2303.5079     -1908.7262    
   1309500   288.23866      192.54374     -2327.6011     -1956.815     
   1310000   306.78476      1716.2203     -2310.1861     -1915.524     
   1310500   304.42227      512.65197     -2313.4765     -1921.7158    
   1311000   294.76145      1254.7309     -2302.2123     -1922.0698    
   1311500   309.53293      1697.3985     -2275.765      -1876.786     
   1312000   278.82214      969.00693     -2293.6835     -1933.4568    
   1312500   303.64126      2864.9142     -2322.0572     -1930.2815    
   1313000   310.74135      1604.2113     -2297.2378     -1896.003     
   1313500   278.23963      314.4881      -2278.143      -1918.8238    
   1314000   301.01859      664.39253     -2335.9531     -1947.2757    
   1314500   302.38958      1221.1715     -2340.8477     -1950.5004    
   1315000   298.7541       958.49481     -2296.5357     -1910.8603    
   1315500   293.0729      -864.52226     -2282.7463     -1904.3073    
   1316000   299.45683     -1253.0292     -2337.6179     -1950.9815    
   1316500   284.55403      1596.1017     -2334.8355     -1967.4827    
   1317000   298.78016      2298.466      -2314.302      -1928.9101    
   1317500   307.34488      1558.7746     -2295.0365     -1898.3784    
   1318000   287.63691      674.07487     -2326.1558     -1954.9298    
   1318500   309.44107      1024.8229     -2332.651      -1933.1077    
   1319000   325.02994      1219.8955     -2323.5163     -1903.8157    
   1319500   291.57636      411.80224     -2316.1773     -1939.6694    
   1320000   293.62082      13.408729     -2319.1544     -1940.3776    
   1320500   277.65091      174.72086     -2314.1686     -1955.608     
   1321000   283.69017      2097.2884     -2313.958      -1947.8779    
   1321500   310.76431      1489.8734     -2309.0039     -1907.64      
   1322000   277.56904      210.46385     -2318.0608     -1959.8648    
   1322500   286.19302      1331.3738     -2318.2422     -1948.7473    
   1323000   314.69405      410.28831     -2317.2574     -1910.9721    
   1323500   308.72699      931.77603     -2330.8962     -1933.6994    
   1324000   307.44868      404.37887     -2334.6333     -1938.411     
   1324500   300.19052     -496.36408     -2292.0851     -1906.1405    
   1325000   304.84148      50.398424     -2310.4432     -1918.3653    
   1325500   284.99015      921.01392     -2318.1079     -1950.793     
   1326000   313.00143      394.01901     -2317.335      -1914.8314    
   1326500   313.99471      2186.3492     -2257.0622     -1851.7029    
   1327000   302.03227      740.7899      -2295.9191     -1907.8531    
   1327500   297.35525      546.42238     -2337.3102     -1953.5912    
   1328000   302.59795      251.30494     -2309.8172     -1920.5235    
   1328500   325.89839     -18.28273      -2326.7479     -1906.7186    
   1329000   285.22605      3174.9032     -2291.5269     -1924.2068    
   1329500   295.63442      42.967843     -2316.1341     -1935.2905    
   1330000   293.37833     -730.78637     -2358.2236     -1980.1604    
   1330500   313.76008      411.95547     -2334.9555     -1930.9205    
   1331000   294.04744      887.0642      -2303.9553     -1925.0186    
   1331500   281.35455      45.559295     -2328.1372     -1965.7394    
   1332000   296.28223      1686.9691     -2358.8529     -1977.0973    
   1332500   284.20272     -107.02542     -2284.2206     -1917.99      
   1333000   323.78183      450.71238     -2320.2269     -1902.9397    
   1333500   276.07558      1389.0867     -2316.552      -1960.797     
   1334000   316.96752     -95.083944     -2342.7908     -1935.0376    
   1334500   312.21282      1746.2249     -2316.9797     -1914.8249    
   1335000   297.64266      1142.4322     -2324.528      -1940.9516    
   1335500   295.20298      1281.4213     -2348.1241     -1967.76      
   1336000   308.80076      210.16034     -2328.6459     -1931.57      
   1336500   298.01927      1372.0176     -2299.0867     -1915.7006    
   1337000   293.21641     -86.857914     -2342.4282     -1965.3952    
   1337500   304.10379      33.327982     -2318.3032     -1926.3768    
   1338000   317.21725      1975.3425     -2316.7863     -1908.2378    
   1338500   293.66849      1285.122      -2330.0538     -1952.5463    
   1339000   307.22077      1178.1173     -2342.0895     -1946.9105    
   1339500   313.20988      569.00046     -2297.221      -1893.5326    
   1340000   302.42813     -748.89637     -2331.9229     -1943.0484    
   1340500   302.41009      979.52961     -2317.4482     -1927.7959    
   1341000   313.93335      1017.5885     -2310.5929     -1905.9595    
   1341500   316.39244      907.74885     -2344.3764     -1937.1616    
   1342000   278.90213      1236.0521     -2337.4306     -1979.2161    
   1342500   286.16339      770.16142     -2331.5112     -1962.7107    
   1343000   293.47407      379.30601     -2299.5577     -1922.4828    
   1343500   286.76145      1397.3301     -2311.9823     -1943.2006    
   1344000   302.1487      -542.84161     -2351.2912     -1960.969     
   1344500   300.61474      1461.0757     -2292.9401     -1904.7774    
   1345000   304.32957      338.27093     -2324.2248     -1931.4468    
   1345500   296.62857      866.26693     -2351.8651     -1968.8529    
   1346000   292.9807       2738.7431     -2325.6573     -1947.6971    
   1346500   294.69167      1130.1418     -2287.4213     -1906.8868    
   1347000   314.92251     -3.9122309     -2293.5909     -1887.0111    
   1347500   298.55818      428.76915     -2304.7514     -1919.3639    
   1348000   297.60137      604.88341     -2312.5749     -1928.0717    
   1348500   297.45701      1161.3328     -2303.7709     -1919.6802    
   1349000   320.65934      1547.6558     -2301.4268     -1887.6699    
   1349500   291.6879      -494.74833     -2316.5556     -1939.9993    
   1350000   301.79454      1855.2843     -2331.8433     -1942.1212    
   1350500   289.81633     -457.90466     -2284.3767     -1910.1252    
   1351000   307.6036      -89.291446     -2314.8324     -1917.6484    
   1351500   298.16608      2356.5802     -2342.9434     -1958.004     
   1352000   296.65118      1784.2587     -2310.3245     -1927.3756    
   1352500   308.76752      2068.2722     -2313.7947     -1915.175     
   1353000   302.59783      2351.4216     -2352.9664     -1962.2155    
   1353500   308.50021      490.55729     -2311.9074     -1913.6208    
   1354000   308.36775      105.3966      -2300.9528     -1902.8722    
   1354500   317.09931      925.22642     -2339.9415     -1930.7189    
   1355000   287.64215      1569.5636     -2304.3697     -1933.304     
   1355500   299.19311      1592.232      -2287.3507     -1901.2185    
   1356000   317.45321      729.74703     -2287.4553     -1877.642     
   1356500   291.68428      1318.4739     -2319.3647     -1942.759     
   1357000   301.16691      1561.0455     -2305.71       -1916.8056    
   1357500   301.29209     -993.44231     -2303.1494     -1914.0931    
   1358000   274.27869      1794.2357     -2307.3573     -1953.229     
   1358500   299.26435      1555.7131     -2296.8801     -1910.6472    
   1359000   305.71978      638.62853     -2317.4874     -1922.81      
   1359500   296.99626     -66.687033     -2318.9926     -1935.6815    
   1360000   317.6376       1136.0935     -2284.0405     -1874.2903    
   1360500   312.67768      752.34971     -2297.4934     -1894.0494    
   1361000   306.10085      659.83851     -2328.6696     -1933.2522    
   1361500   291.3473      -319.82795     -2311.2106     -1935.1925    
   1362000   288.80037      1020.5282     -2322.6667     -1950.0537    
   1362500   310.44685      1391.606      -2313.7635     -1913.179     
   1363000   315.51914      66.508762     -2319.5252     -1912.3514    
   1363500   299.63943      281.52854     -2358.6017     -1971.7589    
   1364000   303.04472      1880.6709     -2339.8612     -1948.5862    
   1364500   297.88056      1351.0187     -2289.178      -1904.6177    
   1365000   307.79517      1878.9468     -2322.4456     -1925.0619    
   1365500   301.99104      1563.6442     -2356.7403     -1966.784     
   1366000   295.46589      354.16439     -2315.3701     -1933.9077    
   1366500   292.29322     -300.52723     -2317.7075     -1940.2891    
   1367000   300.96931     -48.682447     -2317.2409     -1928.5582    
   1367500   299.37782      331.39162     -2281.9985     -1895.4081    
   1368000   295.24825      464.78807     -2332.6971     -1951.4125    
   1368500   311.53583     -431.5788      -2356.2827     -1954.0095    
   1369000   284.81095     -580.40769     -2277.3374     -1909.5406    
   1369500   339.50937      899.65823     -2282.0238     -1843.6288    
   1370000   303.51283      683.63948     -2289.8235     -1897.8794    
   1370500   294.45166      932.49074     -2327.9985     -1947.743     
   1371000   298.03615      615.28987     -2290.7332     -1905.8894    
   1371500   320.20521      1535.5305     -2323.6646     -1910.4779    
   1372000   298.67371     -101.53432     -2308.1417     -1922.403     
   1372500   289.50668      1040.4685     -2325.9356     -1952.1154    
   1373000   307.35437      397.37162     -2352.4289     -1955.6215    
   1373500   305.81853      1615.0585     -2311.2967     -1916.4923    
   1374000   284.45623      1163.4134     -2288.0392     -1920.5975    
   1374500   278.78272      1372.9883     -2327.5328     -1967.3756    
   1375000   278.46376      1017.0133     -2303.7841     -1944.6107    
   1375500   307.28156      1160.5025     -2317.4343     -1920.9059    
   1376000   273.13861      306.7566      -2314.5222     -1962.1866    
   1376500   312.23288      724.84072     -2321.7899     -1918.9928    
   1377000   311.21462      766.04933     -2313.6545     -1912.0726    
   1377500   300.90866     -86.323559     -2342.7466     -1954.1689    
   1378000   320.49744      625.76665     -2320.3834     -1906.5236    
   1378500   316.38667      345.93918     -2321.6458     -1913.113     
   1379000   284.82121      528.13278     -2329.1119     -1961.302     
   1379500   292.05297      2343.2828     -2342.6461     -1965.4999    
   1380000   302.22957      1538.3216     -2321.8505     -1931.6518    
   1380500   307.04884      627.74979     -2308.8101     -1912.3906    
   1381000   306.30376      599.45304     -2335.8931     -1940.4782    
   1381500   302.7827       1266.5345     -2321.0419     -1930.4719    
   1382000   304.61731     -165.6451      -2289.0707     -1895.9438    
   1382500   284.80679     -290.66597     -2319.3328     -1951.6527    
   1383000   286.72736     -305.36851     -2331.5189     -1961.3578    
   1383500   310.11243     -357.04503     -2322.1283     -1921.7574    
   1384000   310.32046      468.49834     -2330.4254     -1930.0753    
   1384500   279.99791     -516.81624     -2349.8756     -1988.3737    
   1385000   307.68429      194.7776      -2335.25       -1938.0331    
   1385500   289.41542      754.14305     -2290.9456     -1917.4878    
   1386000   320.92589      2032.5921     -2287.0429     -1872.7249    
   1386500   281.83118     -532.81472     -2294.3197     -1930.3818    
   1387000   289.3515      -137.21835     -2299.1946     -1925.5418    
   1387500   324.78025      754.70937     -2301.6957     -1882.3082    
   1388000   298.75486      1548.0649     -2329.1803     -1943.4647    
   1388500   299.79108      60.308041     -2326.5256     -1939.4689    
   1389000   308.2969       1499.2394     -2299.3001     -1901.1562    
   1389500   292.75182      1507.8106     -2267.2041     -1889.1704    
   1390000   306.40191      100.77597     -2343.2851     -1947.6702    
   1390500   273.4438       1585.3345     -2312.9339     -1959.7252    
   1391000   303.46964     -887.92113     -2302.906      -1911.004     
   1391500   294.9194       3168.7688     -2300.9526     -1920.5166    
   1392000   283.34422      2205.0714     -2317.9967     -1952.4719    
   1392500   292.80493     -427.57285     -2326.1471     -1948.4169    
   1393000   310.20228     -18.54849      -2296.0589     -1895.4644    
   1393500   294.84652      372.77046     -2317.2661     -1936.5362    
   1394000   302.5771      -322.63106     -2330.6398     -1939.8404    
   1394500   301.98189      744.03058     -2329.9935     -1940.3213    
   1395000   281.1566       908.54362     -2324.1908     -1961.32      
   1395500   295.52515      366.64982     -2297.7638     -1916.2296    
   1396000   288.99313      539.4524      -2306.2951     -1933.2225    
   1396500   287.71815      2233.1265     -2361.4939     -1990.0282    
   1397000   294.98447     -710.42301     -2329.2666     -1949.8319    
   1397500   300.76256      207.16273     -2319.5747     -1932.6942    
   1398000   275.54946      673.23412     -2323.2355     -1968.8694    
   1398500   288.52025      540.48915     -2321.0101     -1950.1438    
   1399000   296.1915       100.76863     -2289.3297     -1906.8759    
   1399500   315.17343     -167.73189     -2324.5452     -1917.8378    
   1400000   290.30112     -200.18181     -2332.6252     -1957.6381    
   1400500   305.67642      2872.0595     -2308.0683     -1913.4987    
   1401000   297.02036      1526.041      -2286.3113     -1903.0181    
   1401500   291.86002      1015.5493     -2298.5448     -1921.7035    
   1402000   301.05396      114.06017     -2329.7121     -1941.1557    
   1402500   295.24414      854.47965     -2343.3586     -1962.2934    
   1403000   299.62143      518.0926      -2300.9544     -1914.0864    
   1403500   287.4801       665.95102     -2287.3516     -1916.1689    
   1404000   304.13457      1710.991      -2343.5052     -1950.8194    
   1404500   295.06851      666.17823     -2318.1234     -1937.2072    
   1405000   305.11667      1937.0294     -2294.7231     -1900.7637    
   1405500   286.27788      1275.8553     -2326.5194     -1956.8482    
   1406000   290.38866     -187.96043     -2314.6437     -1939.6859    
   1406500   302.09963      742.2533      -2293.8271     -1903.7428    
   1407000   288.66292      37.728479     -2287.5141     -1914.8043    
   1407500   299.83295      299.21544     -2317.1503     -1930.0645    
   1408000   288.01212      206.52764     -2324.3951     -1952.5521    
   1408500   288.13758      564.03628     -2286.4604     -1914.3295    
   1409000   310.39215      1501.0667     -2294.0276     -1893.2472    
   1409500   296.98991     -301.22601     -2333.8745     -1950.3813    
   1410000   295.99194      1593.1907     -2324.995      -1942.7863    
   1410500   318.30446      3014.7395     -2313.3632     -1902.3363    
   1411000   289.00864      1554.3479     -2320.0364     -1946.8239    
   1411500   316.52228      1552.7839     -2331.0924     -1922.3254    
   1412000   307.20183      1832.3135     -2314.4161     -1917.7163    
   1412500   282.727        1204.2589     -2316.5491     -1951.5268    
   1413000   309.7456       1457.2599     -2297.3018     -1897.4303    
   1413500   309.72916      1313.5199     -2313.4306     -1913.5169    
   1414000   316.1231       1583.5893     -2346.8634     -1938.6585    
   1414500   310.3901       324.1336      -2357.372      -1956.8283    
   1415000   296.97575      336.7439      -2373.0363     -1989.678     
   1415500   289.92609      1517.1816     -2307.6228     -1933.2822    
   1416000   293.95828      2083.5869     -2299.6351     -1920.0946    
   1416500   295.43038      77.178118     -2349.9529     -1968.5436    
   1417000   282.45354      1004.4508     -2317.1362     -1952.3908    
   1417500   310.98492      2063.0788     -2314.7565     -1913.209     
   1418000   305.70848      63.770908     -2321.011      -1926.2909    
   1418500   300.44274      1140.3735     -2345.8591     -1957.8399    
   1419000   295.70935      307.32949     -2327.7888     -1946.0023    
   1419500   310.51842      2583.7663     -2305.8737     -1904.8432    
   1420000   292.67948      86.400069     -2312.1375     -1934.2781    
   1420500   280.99034      1123.2185     -2335.6245     -1972.8542    
   1421000   294.21571     -1343.1822     -2307.5855     -1927.8294    
   1421500   292.00024      653.56776     -2291.7697     -1914.7319    
   1422000   305.24045     -677.73741     -2296.2886     -1902.1135    
   1422500   304.353        1102.501      -2329.5824     -1936.5936    
   1423000   291.11484      1575.9901     -2333.8574     -1957.993     
   1423500   310.26705      2989.4684     -2298.7946     -1898.2211    
   1424000   290.45845      1658.9753     -2303.3072     -1928.2312    
   1424500   277.42862      292.40642     -2334.3861     -1976.0379    
   1425000   283.99397      1382.0877     -2325.8168     -1959.1483    
   1425500   305.2921       738.60672     -2317.6832     -1923.4897    
   1426000   313.60745     -426.18651     -2305.2114     -1900.6147    
   1426500   292.91035      2161.7112     -2317.6526     -1939.3554    
   1427000   305.34155      2034.8908     -2329.6481     -1936.0555    
   1427500   288.74191      2051.9599     -2275.6078     -1902.6611    
   1428000   315.77045      227.9161      -2320.5067     -1912.8975    
   1428500   274.81287      30.146831     -2324.7564     -1969.7332    
   1429000   285.81728      1312.4174     -2330.6854     -1961.9692    
   1429500   311.60347      1092.9911     -2326.1637     -1923.8641    
   1430000   296.96788      1979.8958     -2331.2885     -1947.8429    
   1430500   300.59407      1116.9797     -2359.2577     -1971.3689    
   1431000   283.61395     -499.4326      -2303.0646     -1937.081     
   1431500   316.45668      1619.9405     -2299.6944     -1890.9925    
   1432000   304.95917      1557.8711     -2305.3074     -1911.3515    
   1432500   303.32582      93.827429     -2337.5796     -1945.9839    
   1433000   309.17457     -796.85675     -2333.9515     -1934.8811    
   1433500   329.24793      1180.6136     -2350.1153     -1925.3227    
   1434000   287.28576     -79.155681     -2320.1474     -1949.3569    
   1434500   322.42404      1360.8093     -2345.7527     -1929.7689    
   1435000   298.55081      1557.7722     -2308.2604     -1923.1137    
   1435500   288.94889      58.602454     -2344.3966     -1971.2883    
   1436000   301.22146      608.19361     -2311.4942     -1922.5018    
   1436500   315.32574      27.577228     -2336.8966     -1929.7068    
   1437000   296.89383     -160.50809     -2362.8599     -1979.5034    
   1437500   278.6325       1899.6587     -2312.3613     -1952.5682    
   1438000   299.09764      220.02175     -2315.5689     -1929.4386    
   1438500   320.38522      868.30703     -2303.0166     -1889.2976    
   1439000   299.81889     -346.57395     -2322.8238     -1935.6481    
   1439500   295.99321     -179.08893     -2318.387      -1936.2361    
   1440000   322.28258      954.73926     -2304.8055     -1888.6944    
   1440500   281.27219      1990.8784     -2283.8209     -1920.6333    
   1441000   286.43896      707.86055     -2318.5925     -1948.6793    
   1441500   318.92153      993.50777     -2315.4473     -1903.7382    
   1442000   291.78041      730.56735     -2310.0185     -1933.2448    
   1442500   285.69725     -1097.221      -2311.5423     -1942.6024    
   1443000   318.01864      463.85108     -2314.5856     -1903.8685    
   1443500   289.24126      1637.8839     -2332.541      -1958.9697    
   1444000   305.51573     -460.10187     -2317.7618     -1923.2388    
   1444500   302.72727      1921.1784     -2296.7666     -1905.8344    
   1445000   288.96326      245.61376     -2322.5306     -1949.4685    
   1445500   297.64144      1278.23       -2295.3282     -1910.9568    
   1446000   303.11979      1918.2048     -2287.2952     -1895.8051    
   1446500   297.0563       326.60458     -2318.6039     -1935.0007    
   1447000   267.52222      1042.1879     -2339.322      -1993.8182    
   1447500   301.70455      1425.278      -2347.0345     -1957.4155    
   1448000   301.97089      976.46097     -2310.7194     -1920.82      
   1448500   318.0355       2423.8781     -2305.5584     -1894.9408    
   1449000   314.31278      1521.9933     -2343.4775     -1937.6011    
   1449500   297.57661      349.42473     -2324.831      -1940.5947    
   1450000   296.25409      561.63687     -2275.5857     -1893.132     
   1450500   289.84789      2127.3862     -2320.9991     -1946.7577    
   1451000   279.48882      626.13329     -2304.6592     -1943.8169    
   1451500   302.01164      845.51642     -2294.7326     -1904.7281    
   1452000   298.54768      675.0407      -2309.4006     -1923.8788    
   1452500   295.34535      656.87458     -2323.7276     -1942.4212    
   1453000   309.0613       1960.3696     -2307.9363     -1908.8257    
   1453500   303.30449      1170.5133     -2299.4043     -1907.7191    
   1454000   286.99618      418.74798     -2311.7136     -1941.0837    
   1454500   281.49306      2082.7662     -2275.8272     -1912.2818    
   1455000   326.98549      1024.0665     -2293.4037     -1871.174     
   1455500   294.90526      1034.2999     -2312.1683     -1931.3387    
   1456000   309.03011      307.86924     -2352.6724     -1953.6103    
   1456500   278.80066      1334.5248     -2331.1275     -1971.0494    
   1457000   308.57767      696.73024     -2312.0733     -1913.6822    
   1457500   287.16305      735.66903     -2295.1542     -1924.5325    
   1458000   293.94124      175.52774     -2355.488      -1975.997     
   1458500   303.06702      934.00962     -2320.4917     -1929.1219    
   1459000   310.22679      166.64391     -2327.7552     -1927.1196    
   1459500   278.06491     -756.5009      -2319.8452     -1960.7333    
   1460000   306.68488      1808.2123     -2325.9979     -1929.943     
   1460500   311.32102      1094.9085     -2304.7824     -1902.8503    
   1461000   291.68078      847.11738     -2319.5631     -1942.9815    
   1461500   295.1661       973.53983     -2327.473      -1946.2769    
   1462000   294.74113      992.3265      -2281.1661     -1900.6221    
   1462500   290.94843      1066.3315     -2306.5837     -1930.8239    
   1463000   303.8216      -798.88612     -2328.4711     -1936.2171    
   1463500   286.03835      36.863478     -2293.4521     -1924.2846    
   1464000   304.47539      1940.2686     -2324.8846     -1931.724     
   1464500   289.3312       1178.4064     -2338.506      -1964.902     
   1465000   302.69689      2770.3776     -2302.0587     -1911.23      
   1465500   297.14516      957.25182     -2316.1537     -1932.4939    
   1466000   296.21343      1616.768      -2329.2881     -1946.7061    
   1466500   299.6735      -892.01867     -2309.206      -1921.9734    
   1467000   298.62398      332.14177     -2299.4411     -1913.791     
   1467500   294.50392      599.32778     -2316.9279     -1936.6069    
   1468000   278.50163      792.12985     -2304.514      -1944.8612    
   1468500   288.3212       2775.2579     -2287.6687     -1915.3801    
   1469000   305.80192      418.34984     -2316.1204     -1921.2989    
   1469500   293.31352      2834.6647     -2344.653      -1965.9621    
   1470000   294.59579      1427.7674     -2302.0729     -1921.643     
   1470500   311.39645      1582.2733     -2311.189      -1909.0499    
   1471000   297.156        1057.6939     -2333.8985     -1950.1181    
   1471500   295.61522      458.69317     -2304.4601     -1922.7917    
   1472000   310.8297      -121.23375     -2305.7428     -1904.5653    
   1472500   297.80412      783.58814     -2327.9758     -1943.501     
   1473000   309.23258      1561.1859     -2281.174      -1881.8945    
   1473500   317.12396      1304.5236     -2309.4508     -1901.2943    
   1474000   311.50481      1770.197      -2347.8294     -1945.6815    
   1474500   289.10102      292.8321      -2346.4808     -1973.5965    
   1475000   281.07961      552.51547     -2348.6006     -1985.7122    
   1475500   310.07752      1743.2381     -2332.8535     -1932.4941    
   1476000   311.82613     -1274.9911     -2316.1161     -1913.501     
   1476500   303.05115      2226.9925     -2275.5189     -1886.0139    
   1477000   289.83395      210.04857     -2318.2079     -1944.2776    
   1477500   288.24931      2443.5        -2281.6894     -1909.5514    
   1478000   298.06962      18.938542     -2339.7005     -1954.6368    
   1478500   293.1206       1423.2053     -2328.0076     -1949.3132    
   1479000   315.48846      876.15545     -2315.0746     -1907.5403    
   1479500   301.08869      56.408426     -2321.0465     -1932.5755    
   1480000   280.29197      663.94034     -2342.4357     -1980.6693    
   1480500   283.16442      1508.1176     -2310.0232     -1944.6262    
   1481000   295.61595      1101.1654     -2300.5839     -1918.7517    
   1481500   291.68794     -31.853766     -2317.4191     -1940.9714    
   1482000   275.72448      665.23693     -2362.8917     -2006.8185    
   1482500   280.99096      1626.5424     -2326.1497     -1963.2835    
   1483000   302.08233      1753.5352     -2311.4464     -1921.441     
   1483500   312.09643     -735.02852     -2309.3315     -1906.4108    
   1484000   306.14259      699.38118     -2305.2087     -1909.9498    
   1484500   300.13211      1384.4559     -2336.1639     -1948.7078    
   1485000   308.5477       1852.4204     -2308.0984     -1909.7406    
   1485500   298.14412      89.246417     -2318.2358     -1933.3355    
   1486000   294.46451      2053.0343     -2347.0463     -1966.7753    
   1486500   278.61267      1356.3143     -2322.1041     -1962.3078    
   1487000   310.2681       919.79814     -2314.8174     -1914.1866    
   1487500   299.47373      412.0747      -2342.5727     -1955.8431    
   1488000   288.38541      397.06484     -2318.381      -1945.9619    
   1488500   305.43158     -779.94236     -2318.8467     -1924.4032    
   1489000   293.39544      1098.0225     -2317.752      -1938.8529    
   1489500   296.1121       2477.5765     -2305.9879     -1923.5539    
   1490000   298.56248     -520.95468     -2288.111      -1902.6429    
   1490500   291.85719      2310.7845     -2327.3381     -1950.5638    
   1491000   299.6756      -1249.0633     -2322.4143     -1935.8497    
   1491500   311.18702      451.72858     -2290.0204     -1888.3794    
   1492000   298.01582      1127.6469     -2321.3013     -1936.5266    
   1492500   296.00934      1738.1878     -2322.7409     -1940.5201    
   1493000   302.94236      1982.4367     -2310.3505     -1919.1263    
   1493500   313.69096     -1039.6736     -2298.9393     -1893.9435    
   1494000   304.68915      1466.8166     -2334.135      -1940.7322    
   1494500   311.77682      562.50829     -2349.2072     -1946.6874    
   1495000   287.75799      1890.998      -2295.5835     -1924.0937    
   1495500   302.52628      80.955099     -2323.524      -1932.9091    
   1496000   307.86668      1453.5402     -2346.1307     -1948.6232    
   1496500   324.75233      550.35456     -2324.9862     -1905.794     
   1497000   290.32051     -31.357679     -2309.2342     -1934.4011    
   1497500   302.90058      2419.8342     -2328.9401     -1938.0828    
   1498000   308.40377      246.58499     -2293.0066     -1895.0691    
   1498500   338.48246      519.36365     -2276.0521     -1839.0461    
   1499000   321.93295     -913.90684     -2317.4837     -1902.5177    
   1499500   290.54519      1957.5883     -2320.5627     -1945.4122    
   1500000   289.70616     -36.311594     -2343.3079     -1969.321     
   1500500   299.64613      470.00454     -2317.5645     -1930.8724    
   1501000   317.81716      395.8139      -2314.3638     -1904.3523    
   1501500   307.14278      883.34753     -2356.0949     -1959.7715    
   1502000   297.92172      854.75931     -2332.5726     -1947.9277    
   1502500   303.62382      2060.2371     -2298.8855     -1906.8296    
   1503000   303.85737      856.02784     -2319.8055     -1927.4201    
   1503500   284.8325       39.32886      -2327.1007     -1959.2466    
   1504000   297.80051      717.81477     -2315.6703     -1931.0646    
   1504500   312.4855      -77.838378     -2325.159      -1921.7132    
   1505000   278.88902      88.659051     -2331.1434     -1970.9573    
   1505500   292.02722      223.42667     -2311.7632     -1934.7192    
   1506000   299.9928       1846.3312     -2317.7938     -1930.4046    
   1506500   325.50213      14.254695     -2330.2505     -1909.8796    
   1507000   300.86882      1030.7919     -2278.5922     -1890.1344    
   1507500   302.86743      670.88219     -2330.3451     -1939.383     
   1508000   287.85574      687.02162     -2321.1714     -1949.5114    
   1508500   308.11363      1462.4781     -2284.2431     -1887.1162    
   1509000   308.15654      489.81749     -2322.3565     -1924.47      
   1509500   285.00447      1606.5701     -2310.8173     -1944.1319    
   1510000   323.56953      2468.7279     -2309.4149     -1891.7066    
   1510500   310.07216      838.2836      -2318.2883     -1918.6707    
   1511000   295.34233      594.90743     -2320.6793     -1939.3891    
   1511500   271.87059      484.93371     -2307.6726     -1956.7201    
   1512000   305.6106      -571.96316     -2313.3816     -1919.3094    
   1512500   313.98436      1011.0175     -2313.4628     -1909.0759    
   1513000   269.36497     -87.310556     -2317.0315     -1969.0622    
   1513500   304.12937     -214.18989     -2330.3043     -1937.6222    
   1514000   287.0938       1931.4534     -2298.5785     -1928.2261    
   1514500   284.1786       31.445619     -2357.2905     -1990.5132    
   1515000   297.63541      1601.6923     -2323.8524     -1939.8911    
   1515500   314.18697      268.64498     -2317.0545     -1911.6538    
   1516000   323.45677      364.9788      -2372.7139     -1955.4463    
   1516500   287.50933      724.49619     -2329.726      -1958.8803    
   1517000   295.94313      1000.7715     -2305.3585     -1923.1737    
   1517500   272.46591      1030.753      -2284.0096     -1932.0653    
   1518000   273.68793      647.87808     -2326.3775     -1974.3925    
   1518500   301.87579      2078.2843     -2329.5872     -1940.6228    
   1519000   299.05142      20.591739     -2305.1336     -1919.0615    
   1519500   319.25265      3234.6685     -2318.7055     -1906.5811    
   1520000   285.92377      2899.2653     -2311.0595     -1943.7579    
   1520500   291.52826      1502.3547     -2317.9936     -1941.615     
   1521000   323.6788       1555.6291     -2320.0118     -1902.0895    
   1521500   293.12711      328.23838     -2315.1896     -1937.7577    
   1522000   280.4046      -83.339438     -2341.1962     -1980.542     
   1522500   296.90839     -24.550356     -2310.3014     -1928.8772    
   1523000   312.83317      773.3555      -2320.3723     -1917.1981    
   1523500   290.17477      297.28161     -2345.2082     -1971.3381    
   1524000   298.24647      193.39818     -2336.7577     -1952.6238    
   1524500   287.19152     -252.31355     -2300.0335     -1930.811     
   1525000   294.9988      -529.2601      -2323.9714     -1943.878     
   1525500   307.88797      1655.9939     -2341.5988     -1944.8088    
   1526000   290.75055      105.95805     -2275.7158     -1901.0614    
   1526500   305.07319      288.02915     -2325.2943     -1932.1699    
   1527000   310.60201      132.48287     -2361.3383     -1961.2047    
   1527500   301.78504      1787.1681     -2298.5927     -1910.7571    
   1528000   308.55778      749.00012     -2302.6115     -1906.1836    
   1528500   299.59123      757.83876     -2342.0138     -1956.9376    
   1529000   293.53189      1739.1269     -2322.1226     -1944.4936    
   1529500   296.90242     -1465.4698     -2294.181      -1911.8623    
   1530000   316.89254      2013.5978     -2268.475      -1860.4114    
   1530500   299.52827      2368.886      -2299.5231     -1914.548     
   1531000   311.19299      807.80883     -2310.8699     -1910.8898    
   1531500   320.23298     -421.3662      -2284.5915     -1871.8529    
   1532000   285.82668      788.20529     -2288.8117     -1920.7494    
   1532500   294.05367      364.6783      -2317.0536     -1938.5122    
   1533000   317.17158      129.81018     -2308.6687     -1899.8779    
   1533500   287.67938     -2134.9422     -2285.5226     -1914.8609    
   1534000   281.63643     -160.56532     -2324.607      -1961.6768    
   1534500   285.83065      762.03341     -2312.725      -1944.4088    
   1535000   284.44711      217.57336     -2293.9953     -1927.6253    
   1535500   297.69357      1555.6291     -2360.6624     -1977.0255    
   1536000   279.58269      16.898856     -2296.5614     -1936.27      
   1536500   305.82043      1141.0585     -2312.8113     -1918.6424    
   1537000   286.61451      69.328533     -2317.387      -1947.9982    
   1537500   287.73001      437.89121     -2328.7029     -1957.8688    
   1538000   304.14139      2101.2646     -2312.533      -1921.2944    
   1538500   294.51396      25.785315     -2318.4842     -1939.0367    
   1539000   305.71008      239.4139      -2305.6028     -1912.7042    
   1539500   316.02369      22.294336     -2302.7678     -1896.626     
   1540000   296.31156      1844.7979     -2329.5354     -1948.8985    
   1540500   293.85636      845.01601     -2319.1027     -1941.0106    
   1541000   307.85094      444.50581     -2340.779      -1943.2366    
   1541500   283.98745      1782.1783     -2313.8887     -1949.1425    
   1542000   304.98295      1039.7906     -2316.5844     -1922.8426    
   1542500   322.07558      194.8849      -2308.8723     -1892.9586    
   1543000   317.67035      1000.7645     -2358.2887     -1948.2031    
   1543500   304.15298      1699.9333     -2329.1515     -1936.4942    
   1544000   305.83978      724.16595     -2306.3883     -1911.8197    
   1544500   291.38966      395.8259      -2334.793      -1958.8693    
   1545000   286.10066      1266.4453     -2308.1683     -1938.7895    
   1545500   312.93181      5.6316495     -2314.6235     -1910.8169    
   1546000   279.89156      867.46107     -2301.9879     -1941.2844    
   1546500   288.08432     -154.125       -2357.8492     -1986.5254    
   1547000   305.18514      293.34781     -2319.6623     -1925.6736    
   1547500   302.40893      361.42423     -2310.0885     -1921.2308    
   1548000   300.10863      1854.5058     -2317.5923     -1929.8987    
   1548500   286.83625     -241.07194     -2313.7504     -1943.2374    
   1549000   302.00162      514.28155     -2301.424      -1911.5105    
   1549500   296.716        670.60456     -2282.6727     -1900.8307    
   1550000   285.20982     -828.82588     -2323.6558     -1956.0383    
   1550500   293.74171      1384.0242     -2290.2509     -1911.6206    
   1551000   313.5          752.57841     -2334.9738     -1930.2801    
   1551500   298.42         346.41802     -2328.9791     -1943.6746    
   1552000   303.72817      1348.3057     -2309.4829     -1917.3485    
   1552500   308.84797      2400.2875     -2267.4368     -1868.7229    
   1553000   296.90092      589.36067     -2305.658      -1922.1678    
   1553500   310.69598      1435.0306     -2344.5221     -1943.4166    
   1554000   335.01578      326.17339     -2328.1371     -1895.6392    
   1554500   291.25454      1057.9331     -2303.3548     -1928.1673    
   1555000   293.18537     -792.94898     -2323.4906     -1945.2431    
   1555500   303.52195     -313.28483     -2305.589      -1914.0519    
   1556000   290.75303      537.06557     -2290.2474     -1914.9669    
   1556500   312.87145      3217.2641     -2332.7883     -1929.0048    
   1557000   313.52371      1031.5721     -2353.1995     -1948.4055    
   1557500   299.80602      3040.9487     -2315.1307     -1928.0348    
   1558000   304.13729      698.42132     -2326.9929     -1934.3467    
   1558500   289.19865      1309.8535     -2297.2184     -1923.8647    
   1559000   306.07547      1638.6426     -2316.6073     -1921.4499    
   1559500   307.52768      676.33335     -2320.0502     -1923.3388    
   1560000   310.62726      759.21626     -2333.9063     -1932.9077    
   1560500   286.76532      351.76568     -2318.2767     -1948.0223    
   1561000   302.82731      1897.506      -2302.6155     -1911.6483    
   1561500   301.87059      834.75749     -2299.6386     -1909.7573    
   1562000   306.96798     -63.184867     -2335.755      -1940.1005    
   1562500   292.45919      1483.8843     -2305.7826     -1929.5216    
   1563000   321.65139     -12.434523     -2302.743      -1888.0422    
   1563500   297.54908     -145.52438     -2311.3556     -1928.4857    
   1564000   284.35876      932.99669     -2298.8774     -1932.3779    
   1564500   297.36628      1158.114      -2249.9037     -1866.6251    
   1565000   292.83454      652.30993     -2267.8797     -1891.0308    
   1565500   304.38335      1176.6688     -2327.4146     -1935.0883    
   1566000   295.90666      1523.0524     -2339.3202     -1958.7063    
   1566500   309.37834      800.12152     -2303.1596     -1905.5556    
   1567000   312.47317      1449.9904     -2308.6274     -1906.5013    
   1567500   283.42393      1841.8899     -2318.3771     -1953.834     
   1568000   297.51758      1718.2131     -2325.0512     -1941.305     
   1568500   297.31991      1121.478      -2304.3803     -1920.8336    
   1569000   306.06888      1791.3793     -2273.4735     -1878.2549    
   1569500   297.89424      1322.7584     -2313.233      -1930.5266    
   1570000   299.87695      1728.7616     -2309.2519     -1922.1917    
   1570500   281.71377      270.41739     -2302.7614     -1939.1857    
   1571000   275.57928      593.15213     -2315.0795     -1959.355     
   1571500   309.30423      553.5912      -2320.4175     -1920.8556    
   1572000   301.98541      2040.5968     -2313.982      -1924.0978    
   1572500   306.31972      598.48678     -2341.5408     -1946.0276    
   1573000   294.22809      258.5262      -2310.8163     -1930.9275    
   1573500   289.68352     -366.25509     -2324.8119     -1950.782     
   1574000   297.78879      1865.8443     -2314.5002     -1930.3474    
   1574500   322.74647      1357.568      -2303.1116     -1887.5128    
   1575000   311.15112     -137.53279     -2338.5943     -1936.7608    
   1575500   297.3668       802.7565      -2329.1333     -1945.3488    
   1576000   316.74829      1671.828      -2307.9943     -1899.1478    
   1576500   305.29883      1085.0539     -2315.1045     -1920.8168    
   1577000   294.26379      1668.3728     -2310.7394     -1931.1779    
   1577500   302.42689      1066.6649     -2303.2036     -1913.0283    
   1578000   331.49453      1490.3509     -2296.7463     -1868.8106    
   1578500   309.30937      1619.4095     -2314.553      -1915.2124    
   1579000   290.06979      304.70099     -2326.9236     -1952.3242    
   1579500   310.905        733.39582     -2294.3448     -1892.7806    
   1580000   308.14246      1017.8712     -2296.9896     -1899.5001    
   1580500   299.18866      1254.3952     -2331.8683     -1945.6776    
   1581000   310.63472     -495.6771      -2351.2096     -1950.2852    
   1581500   330.79248      1666.2247     -2321.5358     -1894.7537    
   1582000   300.40936      1659.938      -2283.0199     -1895.1677    
   1582500   295.25737      1693.2157     -2310.012      -1928.791     
   1583000   284.70135      1238.2332     -2326.9157     -1959.3091    
   1583500   293.93249      99.16609      -2306.4835     -1926.9414    
   1584000   305.97492      1354.6922     -2286.3688     -1891.3129    
   1584500   295.46884     -757.991       -2300.8542     -1919.6802    
   1585000   304.3589       1055.1262     -2334.6758     -1941.9253    
   1585500   282.53981      494.43173     -2332.7292     -1967.9745    
   1586000   308.96212      1675.105      -2319.7813     -1920.8804    
   1586500   296.22077      590.20242     -2337.3547     -1955.1336    
   1587000   298.40687     -571.43992     -2328.088      -1943.1104    
   1587500   302.52269      564.36992     -2291.6983     -1902.2985    
   1588000   298.2708      -506.66866     -2301.8919     -1918.0369    
   1588500   311.09925      1705.1986     -2330.5324     -1928.8402    
   1589000   288.37793     -663.32927     -2357.2127     -1985.5807    
   1589500   297.40464      1023.9145     -2338.7947     -1956.15      
   1590000   303.43717      2298.9684     -2304.6662     -1913.5433    
   1590500   287.70546     -415.53603     -2318.8636     -1947.4053    
   1591000   300.64031     -314.73077     -2331.5397     -1943.6698    
   1591500   316.24628      1750.2244     -2320.1182     -1912.5709    
   1592000   303.34858     -206.37669     -2326.7997     -1935.1227    
   1592500   317.58869      1270.5741     -2299.111      -1889.2021    
   1593000   318.58574     -318.88353     -2324.6115     -1913.492     
   1593500   297.80721      604.36985     -2325.0913     -1940.5735    
   1594000   291.99657      942.70796     -2291.4901     -1914.466     
   1594500   311.88807      1814.5113     -2309.9574     -1907.2784    
   1595000   296.33979      1287.9773     -2325.8334     -1943.3456    
   1595500   282.08988      107.42426     -2310.3778     -1946.111     
   1596000   326.56933      2625.6741     -2315.0573     -1893.4287    
   1596500   299.6044       166.51219     -2324.0521     -1937.2257    
   1597000   300.81907      1207.1268     -2326.032      -1937.8138    
   1597500   324.31457      954.85277     -2328.0604     -1909.4843    
   1598000   311.12638      1263.7603     -2312.0973     -1910.3811    
   1598500   301.13795     -778.11077     -2345.9919     -1957.1251    
   1599000   285.21202     -961.74142     -2350.5087     -1982.2551    
   1599500   301.70036      1274.2205     -2348.2291     -1958.6937    
   1600000   296.07212      1073.5027     -2307.4257     -1925.142     
   1600500   300.82231      1313.4063     -2313.5953     -1925.4722    
   1601000   278.56799      1002.0753     -2304.2005     -1944.5088    
   1601500   300.54605      438.61055     -2302.2802     -1914.2869    
   1602000   321.41428      1611.4002     -2315.3787     -1900.5269    
   1602500   295.98646      593.46672     -2318.3548     -1936.4049    
   1603000   291.44547      1423.3667     -2295.8155     -1919.4966    
   1603500   309.5454       1505.0252     -2277.0235     -1877.3513    
   1604000   323.49505      1777.1602     -2282.9888     -1865.6694    
   1604500   317.46151      432.58768     -2345.4458     -1935.4153    
   1605000   295.51265      1738.158      -2337.4949     -1955.9327    
   1605500   302.18719      525.81984     -2303.0689     -1912.7972    
   1606000   309.44208      1988.285      -2313.9291     -1914.3839    
   1606500   285.12209      220.50878     -2302.6702     -1934.3112    
   1607000   296.03558      2220.0747     -2308.1198     -1925.6728    
   1607500   288.65625     -620.56681     -2342.6186     -1970.248     
   1608000   290.02636      3081.4767     -2322.9281     -1948.4866    
   1608500   298.27775      1317.9039     -2288.7588     -1905.0897    
   1609000   300.25197      1594.0426     -2304.14       -1917.1445    
   1609500   283.65241      2257.2829     -2328.5861     -1963.6129    
   1610000   286.94715      859.89277     -2299.1126     -1929.5316    
   1610500   313.61415      941.29084     -2312.4982     -1908.2575    
   1611000   304.08696      2529.8071     -2323.3494     -1931.7236    
   1611500   281.76596      2121.1952     -2314.619      -1951.6413    
   1612000   315.41825      2413.5686     -2299.6724     -1893.1392    
   1612500   314.31715      797.02196     -2335.9585     -1930.8163    
   1613000   271.54673      1346.3494     -2319.5357     -1970.4012    
   1613500   283.66279      527.10715     -2325.3577     -1961.001     
   1614000   296.29584      210.60731     -2291.4828     -1910.5633    
   1614500   309.05492      1190.4173     -2308.2886     -1909.9029    
   1615000   291.98989      193.72851     -2333.2875     -1957.1659    
   1615500   321.02098      2283.575      -2317.0735     -1904.4251    
   1616000   304.81431      1306.0978     -2312.3094     -1919.5097    
   1616500   316.51374      873.64653     -2340.4502     -1932.4289    
   1617000   305.20355      992.7233      -2277.0922     -1883.946     
   1617500   310.48994      1531.5905     -2292.178      -1891.9434    
   1618000   309.59262      1693.2427     -2319.3962     -1920.3198    
   1618500   291.80641     -837.42591     -2322.8051     -1946.6588    
   1619000   290.14835      1025.0822     -2341.6156     -1967.6007    
   1619500   289.95125      764.88771     -2291.2972     -1918.1944    
   1620000   299.50852      1901.6516     -2302.6893     -1917.3468    
   1620500   302.75307      1220.4195     -2354.6556     -1965.1199    
   1621000   294.25042      1912.6705     -2293.6108     -1914.3229    
   1621500   322.35077      924.2817      -2336.7591     -1921.1718    
   1622000   281.92392      770.58557     -2314.8701     -1951.5683    
   1622500   308.99642      933.03601     -2288.6048     -1891.3096    
   1623000   304.36985      450.96627     -2314.149      -1922.0099    
   1623500   276.42609      1272.6319     -2302.8609     -1946.5439    
   1624000   312.13152      2613.9875     -2297.1588     -1896.0576    
   1624500   307.71164      896.8525      -2305.6888     -1909.8302    
   1625000   295.61246      357.93579     -2299.0529     -1919.0502    
   1625500   312.55122      1344.8933     -2293.689      -1890.1536    
   1626000   299.03579      1492.5684     -2311.7399     -1926.6566    
   1626500   302.27807      710.23227     -2336.5047     -1946.8388    
   1627000   302.34642      2721.8399     -2294.0197     -1904.1933    
   1627500   333.58619      2553.8573     -2271.9737     -1842.3626    
   1628000   300.36333      990.82281     -2289.4338     -1901.4127    
   1628500   309.44926      1490.4814     -2336.6958     -1937.7988    
   1629000   291.24801      1241.5329     -2332.084      -1956.4241    
   1629500   321.88596      1256.8939     -2327.6856     -1912.2774    
   1630000   325.65686      706.00256     -2323.5934     -1903.0419    
   1630500   300.36885      691.89283     -2351.1052     -1963.5782    
   1631000   310.16804      1669.0102     -2341.0891     -1940.5378    
   1631500   298.20617      842.06775     -2303.8558     -1918.7586    
   1632000   296.50016      996.12897     -2299.4149     -1916.5226    
   1632500   284.96709     -490.24479     -2337.3494     -1969.4018    
   1633000   308.37446      753.1055      -2330.6343     -1932.3911    
   1633500   297.50226      600.02631     -2310.3504     -1926.1661    
   1634000   312.62529      2902.5953     -2324.014      -1920.3039    
   1634500   291.9052      -617.58468     -2344.8234     -1967.9161    
   1635000   299.06599      911.39589     -2302.1162     -1915.9495    
   1635500   308.48216      573.83872     -2309.0468     -1910.7505    
   1636000   297.42133      942.156       -2339.9711     -1955.8915    
   1636500   293.4096       565.63057     -2305.7807     -1926.939     
   1637000   322.22259      528.79415     -2310.0503     -1893.9517    
   1637500   298.889       -1147.6415     -2318.6094     -1932.6266    
   1638000   311.75332     -1146.7034     -2357.7514     -1955.128     
   1638500   308.81886     -606.70215     -2322.6632     -1923.0383    
   1639000   313.95067      856.60834     -2314.38       -1908.9204    
   1639500   292.40063      184.95479     -2336.8902     -1959.2907    
   1640000   305.94251      2662.3981     -2322.9719     -1927.9649    
   1640500   301.73833      620.15946     -2318.5524     -1928.9233    
   1641000   289.34463      1308.6482     -2324.8567     -1951.2028    
   1641500   306.70908      2332.5299     -2351.1321     -1955.0299    
   1642000   308.81285      270.44062     -2322.4412     -1923.7184    
   1642500   300.08197      38.147711     -2279.8481     -1892.3909    
   1643000   307.68385      2929.426      -2318.4102     -1921.0166    
   1643500   308.63085      1469.3261     -2336.3285     -1937.8195    
   1644000   307.05373      1778.4094     -2292.7783     -1896.3915    
   1644500   304.50195     -1007.6139     -2315.3893     -1922.2841    
   1645000   317.67887      1635.0142     -2315.9686     -1905.8595    
   1645500   325.91128      795.79793     -2289.0275     -1868.2239    
   1646000   294.7758      -517.35587     -2306.1429     -1925.5291    
   1646500   292.27662      1301.1823     -2307.0518     -1929.6722    
   1647000   307.92896      1264.925      -2281.5769     -1883.9905    
   1647500   312.05019     -111.13891     -2337.6243     -1934.7185    
   1648000   305.45159      2125.0497     -2332.2622     -1937.8023    
   1648500   303.55504      1905.6458     -2280.5364     -1888.5483    
   1649000   299.87677      1707.3991     -2307.7611     -1920.538     
   1649500   304.84422      1058.6414     -2334.3207     -1940.6748    
   1650000   315.64911     -494.84492     -2326.3822     -1919.0518    
   1650500   316.73182      1087.39       -2303.7361     -1894.7728    
   1651000   307.85902      1255.9355     -2337.8229     -1940.3255    
   1651500   311.16065      392.91568     -2320.0807     -1918.3557    
   1652000   303.46321      989.59211     -2294.9946     -1903.2033    
   1652500   304.77946     -304.30596     -2335.8218     -1942.6136    
   1653000   309.06723      2748.7223     -2299.762      -1900.6018    
   1653500   289.22928      1146.228      -2312.3099     -1938.8576    
   1654000   297.39615      885.04155     -2328.4637     -1944.4243    
   1654500   310.49612      1255.9621     -2303.5204     -1902.614     
   1655000   321.14632      2105.3696     -2321.8214     -1907.1582    
   1655500   297.6794       1514.5028     -2331.16       -1946.8718    
   1656000   282.58879      2167.7583     -2329.9086     -1965.0678    
   1656500   307.83592      740.05683     -2309.0624     -1911.8867    
   1657000   290.80469      253.42151     -2329.5082     -1954.0187    
   1657500   319.76212     -369.76776     -2339.786      -1926.9104    
   1658000   296.32164      2655.34       -2288.1702     -1905.5006    
   1658500   291.94029      202.30487     -2319.0649     -1942.0698    
   1659000   291.74523      309.66072     -2356.362      -1979.5616    
   1659500   290.28473      735.19502     -2324.7334     -1949.9235    
   1660000   311.37482      793.70756     -2314.6189     -1912.6102    
   1660500   308.73603      1380.0401     -2349.8549     -1951.2262    
   1661000   287.63508     -544.80999     -2329.034      -1957.5774    
   1661500   305.59771      834.86389     -2313.9956     -1919.2959    
   1662000   296.95315      988.00499     -2318.3728     -1934.846     
   1662500   279.75748      143.96507     -2339.0266     -1977.7462    
   1663000   303.45011      1245.8832     -2307.9455     -1916.1114    
   1663500   283.10026      2029.1187     -2311.5835     -1946.048     
   1664000   291.09076     -159.19209     -2328.6807     -1952.811     
   1664500   298.70634      982.04384     -2287.3104     -1901.547     
   1665000   287.37508     -22.794502     -2312.4461     -1941.3287    
   1665500   300.32472      1181.5977     -2323.7949     -1936.0026    
   1666000   310.65921      1573.6403     -2287.6702     -1886.5368    
   1666500   281.57495      534.33345     -2305.3948     -1941.8881    
   1667000   291.56333      1821.794      -2306.2104     -1929.7329    
   1667500   329.23951      784.54917     -2306.1174     -1881.0258    
   1668000   301.19265      1872.3126     -2308.9781     -1919.8774    
   1668500   286.66106     -516.39288     -2285.5245     -1917.1995    
   1669000   302.23893      559.70542     -2273.8501     -1885.2256    
   1669500   297.7075       933.89011     -2307.304      -1923.5209    
   1670000   301.22665      1031.7519     -2331.3231     -1944.2189    
   1670500   313.26804      1637.6132     -2291.5601     -1886.8708    
   1671000   297.69301      1503.2478     -2286.4993     -1901.9196    
   1671500   280.72521      295.60205     -2290.0396     -1927.6196    
   1672000   307.87018      280.57976     -2341.0526     -1943.4096    
   1672500   307.16833      215.7843      -2303.559      -1907.0811    
   1673000   300.68704      44.475562     -2303.8148     -1915.5528    
   1673500   293.79387      422.87317     -2331.4335     -1951.9613    
   1674000   301.93259      1080.1459     -2306.2862     -1916.2596    
   1674500   298.23617     -685.98355     -2299.4269     -1914.6899    
   1675000   293.40009      694.86323     -2342.6631     -1963.8539    
   1675500   304.90446      1233.471      -2307.8572     -1914.4883    
   1676000   307.2349       1239.5549     -2302.3233     -1905.5594    
   1676500   287.04317      365.20911     -2318.5559     -1947.9274    
   1677000   312.22874      1033.3647     -2305.4895     -1902.3793    
   1677500   297.59518      1349.0647     -2282.6063     -1898.3278    
   1678000   295.2122       1088.317      -2322.3915     -1941.2024    
   1678500   301.04044      1345.5456     -2323.4329     -1934.7331    
   1679000   314.49854      1163.0063     -2297.7529     -1892.0504    
   1679500   304.98544      2463.8556     -2306.5051     -1913.0483    
   1680000   298.56742      1690.9367     -2336.5079     -1951.3495    
   1680500   306.22936      492.91281     -2320.0512     -1924.8606    
   1681000   312.74536      654.80999     -2302.3829     -1898.9257    
   1681500   278.47222      26.81729      -2324.7247     -1965.2148    
   1682000   286.59589      483.54177     -2302.9399     -1932.9373    
   1682500   304.17893      920.33073     -2315.718      -1924.7653    
   1683000   285.10807     -913.53762     -2347.2106     -1979.6722    
   1683500   301.63847      702.13453     -2320.8477     -1931.9803    
   1684000   292.15692      1066.223      -2295.2521     -1919.2266    
   1684500   285.64278      270.3454      -2331.749      -1964.6196    
   1685000   306.67084      1598.9707     -2329.7163     -1934.4345    
   1685500   301.29597     -88.102667     -2287.8871     -1899.4386    
   1686000   279.30682      368.84206     -2307.102      -1947.309     
   1686500   284.32536      1613.7265     -2310.2487     -1944.4245    
   1687000   316.62027      1022.8356     -2301.6063     -1894.6356    
   1687500   315.99921      1109.5372     -2309.851      -1902.5181    
   1688000   292.4494       326.14295     -2321.4828     -1945.1016    
   1688500   305.52355      2881.6992     -2330.053      -1935.4654    
   1689000   319.88661      1949.1452     -2294.9667     -1881.9256    
   1689500   303.61405      2060.6626     -2316.4352     -1924.2863    
   1690000   280.80906      1046.1579     -2309.83       -1948.2772    
   1690500   319.18177      583.79571     -2298.9632     -1888.7431    
   1691000   293.78005      1376.3791     -2302.59       -1923.9375    
   1691500   292.98319      1729.4261     -2309.0029     -1931.6966    
   1692000   320.68678      1209.2182     -2292.3076     -1878.5504    
   1692500   299.24676      2149.9715     -2304.6176     -1918.383     
   1693000   299.76987     -78.102267     -2314.2098     -1927.3791    
   1693500   296.80155      417.96002     -2333.1594     -1949.9114    
   1694000   299.9377       1715.6814     -2353.4151     -1966.283     
   1694500   305.2474       461.34807     -2306.2474     -1912.3303    
   1695000   306.66381      105.35393     -2311.8598     -1915.8724    
   1695500   283.12235      1897.6156     -2312.0285     -1946.4225    
   1696000   305.90085      514.69198     -2333.7103     -1938.6385    
   1696500   300.89815      885.56054     -2282.4379     -1893.8633    
   1697000   315.17395      139.57648     -2311.7456     -1904.7345    
   1697500   296.29799     -277.35263     -2321.1106     -1938.4163    
   1698000   305.3624       2059.3206     -2325.1657     -1930.8414    
   1698500   300.46663      1641.7562     -2348.5354     -1960.5458    
   1699000   304.73418      563.64844     -2306.797      -1913.2799    
   1699500   305.28921      652.80436     -2315.514      -1921.2063    
   1700000   293.55988      1033.3199     -2356.8648     -1977.7548    
   1700500   307.35243      537.94579     -2343.856      -1946.968     
   1701000   291.08619      2557.6431     -2296.8812     -1920.9486    
   1701500   294.12569      1206.8252     -2306.8171     -1926.997     
   1702000   294.89019      1813.4362     -2344.6904     -1963.9331    
   1702500   306.05379      1115.116      -2322.5253     -1927.3652    
   1703000   299.00554      1763.8954     -2296.3797     -1910.3567    
   1703500   298.11281      1169.0452     -2338.1456     -1953.2891    
   1704000   304.79237     -201.34735     -2327.4863     -1933.8956    
   1704500   329.86861      3128.0597     -2322.2269     -1896.3214    
   1705000   303.48856      1712.5398     -2315.701      -1923.8003    
   1705500   284.80738      1501.2155     -2314.232      -1946.4548    
   1706000   313.60953      893.62535     -2299.316      -1894.3381    
   1706500   321.42322      14.399722     -2315.8386     -1900.7594    
   1707000   285.39983     -463.82013     -2306.8103     -1938.249     
   1707500   303.10082      1067.3741     -2290.7967     -1899.4373    
   1708000   284.68098      2257.2875     -2312.3152     -1944.6749    
   1708500   310.42722     -287.76371     -2358.2961     -1957.4321    
   1709000   314.49049      533.17854     -2307.1752     -1901.1833    
   1709500   293.49161      1299.4259     -2286.8893     -1907.9306    
   1710000   305.22139      74.801932     -2337.2296     -1943.1034    
   1710500   304.49213      714.65787     -2324.6201     -1931.4874    
   1711000   298.72188      1350.3851     -2296.4427     -1910.698     
   1711500   293.85507      1023.0555     -2320.94       -1941.8512    
   1712000   301.38099      1868.9728     -2332.6013     -1943.4071    
   1712500   312.24358      1387.7321     -2286.7878     -1883.5625    
   1713000   290.20301      443.64846     -2291.6924     -1916.9796    
   1713500   294.75329      1752.7399     -2303.6281     -1923.0997    
   1714000   306.29605      32.541468     -2320.2516     -1924.9124    
   1714500   303.24637      343.03409     -2344.7869     -1953.3702    
   1715000   304.06231      1565.4204     -2299.734      -1907.3951    
   1715500   288.30407      1492.5739     -2277.3253     -1904.9677    
   1716000   290.3779       1605.8288     -2336.2262     -1961.1938    
   1716500   288.62828     -128.40143     -2293.8722     -1921.0225    
   1717000   305.58904      310.08641     -2317.7927     -1922.9633    
   1717500   293.72993      1119.4297     -2348.104      -1968.8843    
   1718000   299.87216      1120.5547     -2313.3388     -1926.019     
   1718500   295.76226      483.21328     -2287.3499     -1905.7538    
   1719000   294.57118     -692.4931      -2306.9408     -1927.6077    
   1719500   293.05384     -280.49609     -2322.4752     -1944.9954    
   1720000   289.65687     -627.66159     -2268.5777     -1895.7546    
   1720500   291.76172     -331.92451     -2317.7701     -1941.0144    
   1721000   311.7229       328.92758     -2326.9602     -1924.5996    
   1721500   283.08683      788.37472     -2302.542      -1937.0633    
   1722000   298.05724      1699.6185     -2336.6271     -1951.9511    
   1722500   307.68456      1873.8524     -2298.1064     -1900.9521    
   1723000   313.02713      1586.4378     -2324.2534     -1919.8692    
   1723500   291.19637     -686.76606     -2330.3479     -1954.5707    
   1724000   316.98885      702.26455     -2328.5414     -1919.6054    
   1724500   305.17814      847.0022      -2325.0087     -1930.9262    
   1725000   306.65392      577.90516     -2365.6078     -1969.6187    
   1725500   292.22983      2093.712      -2318.8799     -1941.6853    
   1726000   296.34367      1792.809      -2301.666      -1918.9735    
   1726500   275.55903      1012.3466     -2311.2213     -1955.4536    
   1727000   293.66062     -25.456476     -2374.7306     -1995.6628    
   1727500   299.30649      912.36037     -2332.6876     -1946.3367    
   1728000   287.7078       1108.6541     -2290.9208     -1919.4858    
   1728500   298.7573       2320.3942     -2263.7861     -1878.0417    
   1729000   304.31691      728.12893     -2307.2669     -1914.4482    
   1729500   301.3091      -146.05983     -2323.8303     -1934.5368    
   1730000   314.77163     -152.97527     -2288.7718     -1882.6078    
   1730500   309.77093      7.3851446     -2325.182      -1925.165     
   1731000   299.11963      1302.7889     -2334.3923     -1948.0901    
   1731500   294.67153     -4.9774906     -2354.8066     -1974.2692    
   1732000   301.60377      1180.1553     -2306.6666     -1917.1049    
   1732500   295.33893      411.41911     -2319.7073     -1938.3775    
   1733000   308.98409      969.23762     -2388.0793     -1989.0837    
   1733500   296.99039      640.34729     -2376.5923     -1993.1223    
   1734000   298.73924      975.0156      -2317.3935     -1931.6607    
   1734500   320.79687      2319.8489     -2312.9762     -1898.7639    
   1735000   315.40971      1438.2731     -2365.8504     -1958.536     
   1735500   296.89446     -718.17905     -2333.2722     -1949.8684    
   1736000   302.45357      195.80173     -2308.2067     -1917.6224    
   1736500   296.61785      1787.0628     -2297.1415     -1914.1779    
   1737000   299.96916      1168.0932     -2342.5182     -1955.1913    
   1737500   308.0611      -364.52714     -2313.7041     -1915.8403    
   1738000   302.0627      -373.92719     -2291.9068     -1901.8285    
   1738500   288.86209      1518.0396     -2301.0313     -1928.0838    
   1739000   294.99888      1888.998      -2324.7931     -1943.8818    
   1739500   282.5888       1094.1607     -2322.8809     -1958.3504    
   1740000   303.89485      521.50155     -2318.5828     -1926.3323    
   1740500   320.47685      2503.7198     -2293.3987     -1879.9269    
   1741000   286.88598      263.20061     -2301.8213     -1931.6948    
   1741500   278.94795      2147.923      -2302.9458     -1943.0083    
   1742000   310.22051     -393.47164     -2298.2974     -1897.6079    
   1742500   315.56844     -96.923003     -2316.2961     -1908.9328    
   1743000   309.20748     -321.10816     -2319.2701     -1920.3263    
   1743500   288.60235      764.69367     -2296.1509     -1923.5862    
   1744000   278.48858      757.74446     -2337.6896     -1978.2545    
   1744500   306.69986      684.44908     -2341.6289     -1945.5656    
   1745000   309.52285      2231.3713     -2324.929      -1925.4211    
   1745500   292.27612     -602.40788     -2348.2325     -1971.0734    
   1746000   288.36102     -401.69212     -2328.71       -1956.702     
   1746500   308.5664      -268.13244     -2317.3136     -1918.7237    
   1747000   287.18451      1701.5527     -2288.1539     -1917.3371    
   1747500   287.90748      794.07415     -2330.9928     -1959.2499    
   1748000   298.25163     -64.462712     -2296.6789     -1911.8691    
   1748500   314.38851      2100.8776     -2328.0323     -1921.9401    
   1749000   303.00641      315.94097     -2328.6306     -1937.3526    
   1749500   292.61073      1510.2744     -2307.1695     -1929.3039    
   1750000   325.37668      286.14804     -2296.6822     -1876.7935    
   1750500   306.00853      1292.2452     -2324.5936     -1929.4676    
   1751000   302.94263      355.90493     -2341.5473     -1950.5922    
   1751500   283.34183      708.14407     -2335.3057     -1969.3971    
   1752000   312.9969       718.50028     -2324.7585     -1920.5598    
   1752500   296.74786      376.39279     -2340.0192     -1956.7646    
   1753000   280.27968      1270.756      -2327.2597     -1965.3453    
   1753500   302.99354     -179.74503     -2303.7998     -1912.519     
   1754000   309.20424      1166.8935     -2302.5534     -1903.271     
   1754500   295.22868      330.89388     -2337.4434     -1956.1757    
   1755000   304.20067      956.3388      -2315.2851     -1922.5052    
   1755500   298.05595      1560.8243     -2277.5141     -1892.6572    
   1756000   300.19063      273.20489     -2320.8214     -1933.156     
   1756500   292.78845      796.18103     -2320.7888     -1942.67      
   1757000   322.29301      878.73377     -2327.1658     -1911.0252    
   1757500   318.68611      776.18785     -2259.8192     -1848.3557    
   1758000   308.27386      2772.5578     -2302.3051     -1904.2961    
   1758500   307.12474      1583.0146     -2338.2845     -1941.8017    
   1759000   293.94176      1107.5936     -2328.1795     -1948.7359    
   1759500   301.38417     -513.40079     -2331.4684     -1942.3279    
   1760000   319.95201      1568.7399     -2323.9659     -1911.1387    
   1760500   308.18995      1632.7963     -2309.3146     -1911.1288    
   1761000   297.3702       99.65979      -2338.7596     -1955.0654    
   1761500   294.87085      3101.7837     -2293.2684     -1912.6048    
   1762000   307.82119     -402.69566     -2322.0386     -1924.5989    
   1762500   292.94981     -469.30443     -2322.1428     -1943.9147    
   1763000   303.14318      2121.9649     -2301.3313     -1909.9861    
   1763500   294.5366       1187.6726     -2321.8685     -1941.5044    
   1764000   297.56464      232.65726     -2344.1285     -1959.9477    
   1764500   296.2011      -389.40192     -2280.8719     -1898.3629    
   1765000   306.37893      96.155259     -2330.8582     -1935.1508    
   1765500   285.66455     -1166.8234     -2316.5418     -1947.6152    
   1766000   304.50261      142.60485     -2321.7444     -1928.5714    
   1766500   283.54374     -528.7852      -2312.9419     -1946.7158    
   1767000   284.99146      2113.9184     -2321.5854     -1953.5207    
   1767500   292.88074      2883.3492     -2284.5186     -1906.3315    
   1768000   286.65044      1437.787      -2317.591      -1947.3938    
   1768500   288.64504      1703.355      -2333.5544     -1960.7936    
   1769000   309.33747      137.62755     -2320.4608     -1920.925     
   1769500   306.71166      888.54427     -2313.4951     -1917.4184    
   1770000   292.43577      1147.7456     -2316.8519     -1939.2422    
   1770500   301.40241      302.59383     -2337.9683     -1948.7331    
   1771000   320.82247      306.45034     -2324.8767     -1910.6189    
   1771500   302.28825      391.97363     -2277.5005     -1887.1335    
   1772000   284.67564      401.3816      -2317.6475     -1950.0533    
   1772500   303.75896      982.22196     -2314.1172     -1921.9329    
   1773000   298.64039      1074.8133     -2288.4037     -1902.7147    
   1773500   292.78477      910.03049     -2298.3038     -1920.224     
   1774000   288.71435      856.44847     -2297.6282     -1924.7731    
   1774500   295.6818       1350.6321     -2304.0381     -1922.1675    
   1775000   285.67742     -243.92016     -2322.2812     -1953.293     
   1775500   295.95985     -258.99291     -2294.26       -1912.0509    
   1776000   305.64132      667.01241     -2294.462      -1899.7928    
   1776500   297.27657     -107.59523     -2316.5449     -1932.717     
   1777000   303.12849      2217.0526     -2328.966      -1937.7175    
   1777500   284.04432      3.2274651     -2354.4058     -1987.6479    
   1778000   313.70749      124.5701      -2343.1688     -1938.258     
   1778500   311.6086       783.97524     -2311.9071     -1909.6028    
   1779000   296.30449      1311.5571     -2317.5111     -1934.9113    
   1779500   292.10359      1037.8798     -2351.0796     -1973.9271    
   1780000   301.2575       1888.8206     -2310.7437     -1921.6995    
   1780500   303.50202      1579.7505     -2318.3931     -1926.4125    
   1781000   299.76706      1051.37       -2348.1641     -1960.9626    
   1781500   287.33117     -420.79316     -2320.3247     -1949.253     
   1782000   291.57941      364.67979     -2296.5739     -1920.0134    
   1782500   321.04896     -938.13191     -2292.0071     -1877.4731    
   1783000   306.76375      170.40743     -2326.0726     -1929.9781    
   1783500   291.79846      1003.6461     -2323.3738     -1946.5271    
   1784000   316.19402      1400.9514     -2297.2963     -1889.0061    
   1784500   306.56597      1447.9802     -2310.3524     -1914.4734    
   1785000   301.14062     -799.71655     -2332.9681     -1944.1197    
   1785500   303.80023      1210.3578     -2303.2989     -1911.0473    
   1786000   327.16605      2404.2634     -2278.8554     -1856.6533    
   1786500   297.94449      2358.405      -2294.8067     -1910.3355    
   1787000   295.21008      1250.0102     -2322.5259     -1941.5572    
   1787500   305.07345      1225.9316     -2337.6806     -1943.8041    
   1788000   303.01799      737.18352     -2286.2562     -1895.0714    
   1788500   293.79199      934.18493     -2319.1201     -1940.1121    
   1789000   295.04696      1843.1758     -2328.4966     -1947.7341    
   1789500   307.46701     -41.482871     -2323.8986     -1926.9089    
   1790000   296.01336     -1524.6382     -2263.0179     -1880.7123    
   1790500   306.5279       3207.5061     -2285.2902     -1889.4767    
   1791000   292.77686      144.30857     -2318.1705     -1940.159     
   1791500   295.92693     -439.63944     -2313.6212     -1931.4285    
   1792000   308.7498       1826.826      -2286.4653     -1887.8089    
   1792500   290.04593      970.28238     -2321.5656     -1947.0107    
   1793000   286.4042       1366.0356     -2300.3715     -1930.5046    
   1793500   314.26939      1981.6666     -2299.0994     -1893.2758    
   1794000   294.68188     -577.60246     -2298.9631     -1918.4362    
   1794500   296.7667       873.77143     -2333.7383     -1950.4847    
   1795000   295.35478      1777.1343     -2324.2193     -1942.8663    
   1795500   314.38441      1782.0644     -2318.1958     -1912.1737    
   1796000   284.71353     -327.88543     -2318.0048     -1950.3077    
   1796500   310.14558      177.67632     -2295.6627     -1895.233     
   1797000   308.23292      2482.2196     -2304.5591     -1906.496     
   1797500   294.84784     -974.50974     -2312.7261     -1932.0223    
   1798000   302.40948      2038.0885     -2286.8845     -1896.3656    
   1798500   317.41203      2265.1446     -2260.3091     -1850.4299    
   1799000   297.6113       873.08903     -2299.1166     -1914.7742    
   1799500   292.82724      1269.3775     -2331.6882     -1953.5309    
   1800000   290.20404      1695.4358     -2338.1092     -1963.4077    
   1800500   310.02329      1983.9191     -2315.2478     -1914.9685    
   1801000   298.18402      203.68719     -2315.1635     -1930.1426    
   1801500   285.74919     -350.14265     -2335.8939     -1966.8619    
   1802000   320.41565      1514.8343     -2314.0938     -1900.6669    
   1802500   305.37637      1373.8632     -2315.531      -1922.7514    
   1803000   288.76258      1460.3784     -2335.5055     -1962.4935    
   1803500   303.80066      124.36516     -2303.2419     -1911.6041    
   1804000   298.68164      395.56984     -2282.0688     -1896.5099    
   1804500   302.01843     -177.98457     -2324.1289     -1934.211     
   1805000   303.25419      956.59684     -2340.0906     -1949.8089    
   1805500   297.26787      784.775       -2291.3464     -1908.8408    
   1806000   314.48697     -268.09977     -2304.4029     -1898.3641    
   1806500   290.81372      885.68028     -2320.6473     -1945.198     
   1807000   303.8565       1149.1296     -2321.5832     -1930.8271    
   1807500   308.26902      1413.2363     -2321.7256     -1924.7506    
   1808000   297.47336      2006.1407     -2326.8988     -1943.4077    
   1808500   282.64982      1590.8915     -2298.274      -1933.9777    
   1809000   305.27765      1779.0126     -2290.2031     -1896.8743    
   1809500   308.35227      1672.491      -2328.0938     -1930.5497    
   1810000   280.3307      -894.86124     -2286.4916     -1925.112     
   1810500   297.01845      2263.3775     -2293.5487     -1910.8365    
   1811000   286.18492      618.31242     -2307.8242     -1938.9584    
   1811500   312.49378      1320.6595     -2291.302      -1888.6311    
   1812000   312.25782      1308.6274     -2305.2978     -1902.7478    
   1812500   292.23478      100.05211     -2302.0821     -1925.909     
   1813000   286.27782      1075.3475     -2333.0162     -1963.6897    
   1813500   290.84562      1247.0936     -2335.2926     -1960.0819    
   1814000   302.42666      1187.9257     -2309.2155     -1918.7709    
   1814500   292.15035      138.96112     -2320.3615     -1943.3523    
   1815000   296.59993      152.26899     -2349.1365     -1966.1851    
   1815500   301.65291      1821.5946     -2306.1481     -1917.0231    
   1816000   273.22304      1859.0018     -2296.4038     -1945.5296    
   1816500   276.98302     -664.06909     -2332.685      -1975.2295    
   1817000   303.44984      868.72078     -2317.6357     -1925.8295    
   1817500   307.42172      1387.4767     -2295.0928     -1898.148     
   1818000   298.27909      1952.5329     -2259.8814     -1875.8704    
   1818500   306.97617      481.99758     -2310.7173     -1914.4124    
   1819000   307.79416      3297.2228     -2318.0586     -1921.943     
   1819500   287.55853      606.96121     -2337.5836     -1966.9577    
   1820000   298.6812       2177.7622     -2309.6297     -1925.5651    
   1820500   298.45857      86.762214     -2319.4787     -1934.3181    
   1821000   297.84527      1052.6742     -2323.5713     -1939.0391    
   1821500   294.23295      490.36158     -2343.8522     -1964.0341    
   1822000   308.46027     -258.09334     -2314.9351     -1917.7218    
   1822500   311.719        1138.5885     -2319.3326     -1918.1818    
   1823000   279.96051      2047.4468     -2336.9715     -1977.3886    
   1823500   284.36895     -47.566812     -2293.4301     -1927.3286    
   1824000   307.02871      997.90937     -2310.7325     -1915.0969    
   1824500   295.46601      648.75867     -2350.0234     -1969.439     
   1825000   298.74144     -506.62478     -2328.347      -1943.4551    
   1825500   299.65917      92.483672     -2308.5497     -1922.6241    
   1826000   326.97085      2716.7162     -2319.5901     -1897.6136    
   1826500   293.87843      1831.7145     -2317.4916     -1938.2789    
   1827000   286.33417      1175.4955     -2289.2431     -1919.591     
   1827500   305.06978      1246.2812     -2289.8039     -1897.0153    
   1828000   308.96887      1657.1259     -2332.1026     -1933.796     
   1828500   290.79442      545.12136     -2321.9448     -1947.0749    
   1829000   323.27117      625.65969     -2308.317      -1891.8682    
   1829500   288.46456      1502.8646     -2271.3341     -1899.6904    
   1830000   299.84369      524.25934     -2341.2822     -1954.7006    
   1830500   304.15602      1103.1339     -2339.2706     -1947.1739    
   1831000   309.07983      467.63807     -2293.7797     -1895.3488    
   1831500   307.79305     -602.97263     -2314.7494     -1917.9036    
   1832000   315.42145     -885.75786     -2333.7701     -1928.3833    
   1832500   298.07504     -453.45082     -2349.6025     -1965.6524    
   1833000   290.54219      1485.6092     -2355.6568     -1981.0646    
   1833500   297.19615      173.96149     -2310.1479     -1927.6771    
   1834000   298.61695      1206.9363     -2278.7429     -1894.5157    
   1834500   315.06697      816.37797     -2314.8128     -1909.3579    
   1835000   298.64499      2452.4817     -2329.0277     -1944.9273    
   1835500   284.25859      262.99616     -2321.8617     -1955.3942    
   1836000   294.63558      1071.6018     -2294.571      -1915.8623    
   1836500   300.23307      2029.3726     -2294.9119     -1907.7992    
   1837000   289.25068     -1061.7741     -2327.8175     -1955.031     
   1837500   304.33387      363.17124     -2307.7419     -1915.4293    
   1838000   306.96269      530.6659      -2298.3535     -1902.7705    
   1838500   295.07753      1510.398      -2330.7189     -1950.9448    
   1839000   294.26213      1748.7656     -2339.6752     -1959.8603    
   1839500   315.9611       1089.6656     -2316.3045     -1908.4285    
   1840000   313.54614      252.49232     -2326.3691     -1921.5593    
   1840500   285.72993      779.47186     -2351.0492     -1983.1882    
   1841000   295.51163      440.431       -2345.589      -1964.7769    
   1841500   292.59414      1729.6577     -2296.1584     -1918.3988    
   1842000   296.16629      1319.6528     -2275.727      -1893.3284    
   1842500   286.21914      2547.115      -2324.092      -1954.721     
   1843000   302.9983       2345.5928     -2337.1664     -1946.1102    
   1843500   308.58377      713.31233     -2296.7666     -1899.508     
   1844000   300.86075     -480.31756     -2319.1678     -1931.2282    
   1844500   280.20157      321.9135      -2299.7403     -1937.9761    
   1845000   306.0672       1548.7684     -2303.0277     -1907.6035    
   1845500   286.59713     -41.83119      -2323.938      -1953.9298    
   1846000   291.76612      1571.8104     -2335.5831     -1959.1909    
   1846500   302.19648      578.14288     -2307.6663     -1917.8188    
   1847000   296.28883      167.2554      -2303.6158     -1921.0016    
   1847500   283.38265      21.495098     -2346.1995     -1980.283     
   1848000   299.29349      38.801009     -2330.5047     -1944.0575    
   1848500   318.22636      1937.7135     -2334.2499     -1923.3593    
   1849000   305.46456      43.429629     -2335.2312     -1940.9859    
   1849500   298.11846      201.06509     -2348.0596     -1963.1487    
   1850000   298.34985      1469.0378     -2298.1272     -1913.2168    
   1850500   293.70819      705.48959     -2318.1937     -1939.1351    
   1851000   287.89781     -247.86908     -2348.8727     -1977.2164    
   1851500   295.05345      1704.0268     -2329.9372     -1949.0361    
   1852000   293.08508      775.8824      -2283.5298     -1905.115     
   1852500   296.27759      504.37564     -2304.6081     -1921.992     
   1853000   288.26112     -379.39242     -2304.5129     -1932.2456    
   1853500   297.38298      893.07502     -2322.8925     -1938.8727    
   1854000   274.22193      38.239208     -2332.3843     -1978.1908    
   1854500   281.25521      1135.0653     -2312.2825     -1949.1087    
   1855000   306.63095      1128.3006     -2305.4009     -1909.4425    
   1855500   284.37567     -632.39627     -2316.7341     -1949.5248    
   1856000   291.80859     -862.17204     -2310.7798     -1933.9281    
   1856500   296.67224      1083.1122     -2304.594      -1921.493     
   1857000   293.01127      502.84367     -2348.2325     -1969.8532    
   1857500   299.10758      379.10216     -2318.2398     -1931.9437    
   1858000   299.85459      292.24993     -2301.9843     -1914.7328    
   1858500   305.82896      2481.2658     -2303.4471     -1908.5754    
   1859000   299.35782      1141.126      -2283.4024     -1897.0311    
   1859500   291.49536      463.76158     -2322.3898     -1946.1017    
   1860000   296.34902      1243.8655     -2321.8938     -1939.3959    
   1860500   321.4229       1262.0152     -2298.2641     -1883.3977    
   1861000   288.73636     -99.690392     -2298.1827     -1925.3067    
   1861500   306.14202      1507.2747     -2329.9762     -1934.6443    
   1862000   318.17         2891.825      -2315.2751     -1904.408     
   1862500   314.71302      1398.3185     -2316.3936     -1910.0406    
   1863000   297.25895      282.94813     -2333.2132     -1949.3967    
   1863500   298.95789      466.17741     -2314.3338     -1928.4635    
   1864000   315.23561      3994.6832     -2296.776      -1889.9184    
   1864500   291.60342      144.9127      -2313.3263     -1936.8685    
   1865000   315.52185      1530.4465     -2330.3577     -1922.9558    
   1865500   292.83232      1192.7744     -2326.9283     -1948.7988    
   1866000   301.77816      1833.5897     -2342.597      -1953.1841    
   1866500   305.52421      1317.1124     -2297.7452     -1903.2917    
   1867000   298.68888      3.3800855     -2300.7135     -1914.8765    
   1867500   298.73423      409.67564     -2344.3464     -1958.5498    
   1868000   308.61134      2169.8401     -2324.2512     -1926.0911    
   1868500   314.63438      643.5115      -2309.9065     -1904.1094    
   1869000   302.25382     -2.0576501     -2353.553      -1964.2788    
   1869500   282.75355      576.06805     -2322.4891     -1957.3312    
   1870000   300.6802       911.31317     -2299.7073     -1911.763     
   1870500   300.52483      480.02561     -2319.9536     -1932.2861    
   1871000   294.94765      74.340183     -2323.0718     -1942.3503    
   1871500   294.46962      1795.3317     -2307.4378     -1927.2874    
   1872000   298.06898     -723.60614     -2309.6184     -1925.0327    
   1872500   304.29915      980.63194     -2347.6278     -1955.0385    
   1873000   284.58766      1245.973      -2284.6514     -1917.2427    
   1873500   309.78077      1406.6075     -2305.3377     -1905.3973    
   1874000   280.85709      123.85419     -2306.2024     -1943.6531    
   1874500   289.61396      577.1648      -2377.7904     -2004.0867    
   1875000   303.97153     -610.98879     -2347.8955     -1955.4313    
   1875500   310.46034      53.39786      -2324.47       -1923.5684    
   1876000   300.88836      803.65366     -2282.9213     -1894.3614    
   1876500   304.57779      1829.9756     -2274.1525     -1880.8969    
   1877000   298.46866     -121.90337     -2319.8672     -1934.4417    
   1877500   290.83416     -597.01        -2303.6498     -1928.1281    
   1878000   303.91835      636.11277     -2270.2034     -1877.7286    
   1878500   311.21915      1056.3604     -2305.3563     -1903.5154    
   1879000   297.67289      908.49263     -2308.1985     -1923.8029    
   1879500   293.74523      549.6126      -2349.2545     -1969.8431    
   1880000   295.48699      1174.791      -2342.8292     -1961.2435    
   1880500   303.55329      188.2689      -2321.9852     -1930.0629    
   1881000   304.9634       446.62262     -2314.8207     -1920.9955    
   1881500   305.87978     -406.10911     -2320.8297     -1925.7801    
   1882000   332.55515      999.24942     -2314.984      -1885.6347    
   1882500   301.05152      2517.583      -2324.3664     -1935.6151    
   1883000   285.56279      1778.5579     -2316.0904     -1947.2579    
   1883500   288.83249      1602.199      -2288.6947     -1915.8862    
   1884000   314.03149      2228.4635     -2312.5778     -1907.1565    
   1884500   309.58346      804.94834     -2344.219      -1944.4937    
   1885000   308.10653      326.37038     -2322.2316     -1924.6474    
   1885500   330.36698      582.20381     -2283.4628     -1856.9481    
   1886000   302.43233      777.98604     -2300.7182     -1910.5625    
   1886500   293.12671     -443.80763     -2319.4781     -1941.2207    
   1887000   319.1725       1800.3712     -2308.8689     -1896.8188    
   1887500   304.80071      1499.6115     -2302.9924     -1909.6633    
   1888000   300.5525       1211.2902     -2326.1947     -1938.2078    
   1888500   297.12043      727.90891     -2329.1242     -1945.6593    
   1889000   303.16374      523.93455     -2294.4678     -1902.968     
   1889500   309.15551      172.43494     -2301.3658     -1903.1208    
   1890000   301.58863      1025.5675     -2332.768      -1943.1941    
   1890500   303.72012      752.85045     -2313.213      -1920.9795    
   1891000   295.36377      1402.0665     -2358.0193     -1976.9782    
   1891500   297.4202       2926.8524     -2334.2128     -1950.2432    
   1892000   285.87437      602.07808     -2299.581      -1930.7736    
   1892500   293.49931     -56.737528     -2361.0525     -1982.3559    
   1893000   305.55166     -110.40369     -2360.5837     -1966.1019    
   1893500   317.23562      261.84441     -2341.1765     -1931.9289    
   1894000   306.87301      168.19565     -2328.2532     -1932.0412    
   1894500   310.34915      1569.8412     -2353.3866     -1952.6691    
   1895000   292.93045      322.3826      -2354.9697     -1976.6725    
   1895500   286.30372      2323.7962     -2299.2955     -1929.6494    
   1896000   305.4088       1006.0564     -2312.9384     -1918.5992    
   1896500   285.0593       420.76192     -2295.0345     -1927.5602    
   1897000   317.20345      1852.647      -2300.9955     -1891.5205    
   1897500   305.42801      896.52237     -2332.7993     -1939.0701    
   1898000   279.58765      2578.5697     -2307.1796     -1946.2005    
   1898500   309.95584      146.47497     -2288.3605     -1888.1624    
   1899000   310.62972      1792.7941     -2314.7964     -1913.7195    
   1899500   294.93886      373.09078     -2322.7213     -1941.7662    
   1900000   297.85488      2364.3663     -2304.6335     -1919.9633    
   1900500   315.15135      1565.0855     -2297.2796     -1890.3244    
   1901000   310.75376     -32.471372     -2321.1972     -1919.8883    
   1901500   292.43819      30.405441     -2325.8671     -1948.27      
   1902000   275.19864      335.04477     -2348.0095     -1992.6107    
   1902500   287.09599     -929.57348     -2307.582      -1936.8401    
   1903000   314.1428      -776.78285     -2320.8912     -1915.2784    
   1903500   284.667        448.54792     -2308.0312     -1940.4097    
   1904000   279.90256      655.28399     -2318.0606     -1956.5894    
   1904500   314.6622       1478.6744     -2309.0283     -1902.6822    
   1905000   304.23556      2105.9461     -2323.4848     -1930.6239    
   1905500   297.61811      1282.5979     -2336.0989     -1951.8275    
   1906000   297.58473      1092.7259     -2295.3578     -1911.1532    
   1906500   314.3396       2018.185      -2318.7095     -1912.9255    
   1907000   293.39359      1222.1926     -2304.0722     -1925.2301    
   1907500   308.33845      837.78125     -2320.5623     -1922.4624    
   1908000   298.72533      279.32649     -2331.5644     -1945.8456    
   1908500   289.54032      1361.4615     -2309.9748     -1936.0511    
   1909000   318.62928      1614.1608     -2319.0307     -1907.5861    
   1909500   293.90031      1241.2163     -2333.635      -1954.0458    
   1910000   299.1476       1726.3146     -2325.4347     -1939.078     
   1910500   307.22649      235.75888     -2315.837      -1919.1695    
   1911000   313.67135      1729.0495     -2299.997      -1895.059     
   1911500   304.74795      108.08943     -2333.4467     -1939.9014    
   1912000   286.92001      1888.963      -2313.8727     -1943.5958    
   1912500   289.87785      687.83075     -2325.7503     -1951.4657    
   1913000   295.88657      417.44538     -2303.1588     -1921.1432    
   1913500   293.85942      1634.7241     -2276.1319     -1896.7854    
   1914000   293.75679      433.64498     -2328.101      -1949.4798    
   1914500   289.62288     -45.983641     -2315.5058     -1942.2038    
   1915000   293.88153      2556.5517     -2278.006      -1898.6702    
   1915500   292.42891     -338.94178     -2303.6006     -1925.8852    
   1916000   292.95461      478.46817     -2332.992      -1954.5817    
   1916500   298.42893      2203.2208     -2298.8598     -1913.5375    
   1917000   317.98633      754.98776     -2326.991      -1916.4613    
   1917500   281.20272     -70.235869     -2347.1627     -1983.9231    
   1918000   314.32891      918.62181     -2351.177      -1945.6281    
   1918500   299.69329     -1029.2571     -2313.5975     -1926.95      
   1919000   311.75239      2653.8859     -2278.3919     -1875.9404    
   1919500   314.28361      1444.1771     -2312.92       -1907.2109    
   1920000   296.55065      621.07373     -2327.8486     -1945.0989    
   1920500   306.3619      -1215.7011     -2335.5067     -1940.0056    
   1921000   289.93936      310.15713     -2261.6321     -1887.198     
   1921500   307.83325     -512.96708     -2317.4723     -1919.9688    
   1922000   285.34016      1205.0469     -2319.8427     -1951.4061    
   1922500   300.50718      302.02857     -2328.1262     -1940.0588    
   1923000   312.87244      1102.8246     -2301.9251     -1897.8759    
   1923500   287.37001     -646.40827     -2314.7117     -1943.6654    
   1924000   293.47892      3061.9926     -2327.4082     -1948.4641    
   1924500   283.27617      1316.1839     -2301.5494     -1935.7097    
   1925000   306.26452      986.42695     -2269.2664     -1873.7436    
   1925500   300.20241     -810.62748     -2282.4625     -1894.7702    
   1926000   276.89101      998.61745     -2282.2293     -1924.6361    
   1926500   306.48517      2082.0275     -2314.0726     -1918.4167    
   1927000   316.92301     -469.76946     -2304.3153     -1895.2557    
   1927500   277.63686      179.1929      -2303.3996     -1944.8118    
   1928000   302.48651      1820.0583     -2317.2069     -1926.6825    
   1928500   307.56773      127.75408     -2319.1627     -1922.0825    
   1929000   290.05004      1225.3885     -2309.5531     -1935.1728    
   1929500   294.26769      1082.0179     -2339.138      -1959.182     
   1930000   311.39665      2032.0644     -2282.1992     -1880.2345    
   1930500   305.43768      1267.8369     -2311.8309     -1917.5246    
   1931000   311.6026       1041.9753     -2342.182      -1940.0731    
   1931500   310.16124      89.037441     -2290.4793     -1890.0067    
   1932000   296.05429      1703.9793     -2287.6408     -1905.3283    
   1932500   303.17949      1464.6172     -2323.4484     -1931.9722    
   1933000   322.21581      355.99239     -2347.9414     -1931.7919    
   1933500   312.32865      2757.8883     -2281.6128     -1878.2877    
   1934000   290.18628      1035.3842     -2296.9507     -1922.2141    
   1934500   310.79631      1604.4296     -2315.6958     -1914.3268    
   1935000   301.19602      843.63182     -2279.0856     -1890.0945    
   1935500   281.29594      360.07358     -2295.0477     -1931.9001    
   1936000   287.40517      1313.5831     -2329.128      -1958.2127    
   1936500   287.55121      318.43851     -2321.6505     -1950.6003    
   1937000   309.69943      1671.0016     -2315.0988     -1915.282     
   1937500   284.77527      1731.1137     -2330.2366     -1962.4675    
   1938000   297.76365      1370.1055     -2361.2161     -1976.7289    
   1938500   299.92039      215.01734     -2326.7554     -1939.4394    
   1939000   312.3924       1079.1658     -2338.4433     -1935.0761    
   1939500   283.89577      1637.3609     -2354.0455     -1987.4458    
   1940000   301.50798      853.09023     -2345.5727     -1956.2205    
   1940500   296.21269      1474.0659     -2313.4113     -1930.8136    
   1941000   288.30351      2292.3308     -2270.8203     -1898.5178    
   1941500   336.74081      1354.9422     -2325.7826     -1890.9238    
   1942000   294.17374      1240.3402     -2327.3656     -1947.4857    
   1942500   288.82901      422.51953     -2306.0468     -1933.1045    
   1943000   319.13691      764.83258     -2313.5283     -1901.4418    
   1943500   286.46724     -216.97252     -2332.987      -1963.035     
   1944000   305.01711      1338.2273     -2328.5217     -1934.6039    
   1944500   314.56926      1166.8774     -2325.0541     -1918.8279    
   1945000   279.97472      188.48106     -2338.9309     -1977.3272    
   1945500   285.53878     -301.13111     -2305.7004     -1936.7075    
   1946000   298.57145      583.57249     -2300.1306     -1914.6094    
   1946500   308.86493      2866.2621     -2289.6583     -1890.9166    
   1947000   294.63991      1031.5229     -2310.6686     -1930.365     
   1947500   301.13348     -541.26557     -2339.8586     -1951.0198    
   1948000   303.28661      1430.8803     -2286.8367     -1895.162     
   1948500   310.11422     -257.98033     -2305.8859     -1905.5109    
   1949000   310.27669      823.6709      -2332.0322     -1931.3445    
   1949500   305.3706       602.41746     -2318.0743     -1923.7165    
   1950000   291.88825      396.09204     -2342.745      -1965.8492    
   1950500   297.90439      189.02541     -2321.9059     -1937.1687    
   1951000   312.98818     -87.523341     -2314.0998     -1909.843     
   1951500   285.24266      1188.2531     -2300.5103     -1932.133     
   1952000   295.15974      163.81619     -2324.8449     -1943.6814    
   1952500   310.74737      1927.2573     -2296.0853     -1894.8916    
   1953000   292.74828      897.05184     -2301.703      -1923.6494    
   1953500   293.5767       886.33756     -2316.709      -1937.5591    
   1954000   316.5607       1510.6199     -2286.6677     -1877.8814    
   1954500   294.70129      753.27122     -2301.7392     -1921.0842    
   1955000   294.30602      338.93014     -2316.5306     -1936.4677    
   1955500   300.11774      1926.6066     -2280.473      -1892.9951    
   1956000   310.59968      1247.237      -2295.2788     -1894.2734    
   1956500   285.32115     -495.94471     -2314.8442     -1946.3689    
   1957000   299.82923      1802.5406     -2326.3919     -1939.1703    
   1957500   308.98631      1173.8345     -2286.2128     -1887.1959    
   1958000   288.85303      1266.8667     -2317.1264     -1944.0623    
   1958500   293.65009     -282.79664     -2327.343      -1948.1149    
   1959000   305.92897      2057.4883     -2301.4729     -1906.4315    
   1959500   303.11535      1275.1782     -2293.8674     -1902.4062    
   1960000   303.08509      1822.0546     -2343.7765     -1952.4148    
   1960500   302.60637      577.24406     -2305.3012     -1914.5986    
   1961000   297.93283     -800.37527     -2294.7797     -1909.9855    
   1961500   299.7317      -292.48238     -2344.4529     -1956.1527    
   1962000   301.29451      1128.9516     -2335.6143     -1946.5204    
   1962500   293.48631      1397.1974     -2311.8565     -1932.7657    
   1963000   317.23249      967.91182     -2294.676      -1885.0267    
   1963500   318.17788      562.21783     -2312.0239     -1901.1176    
   1964000   303.04802      231.7851      -2332.4682     -1941.1898    
   1964500   281.76766     -252.81946     -2298.4774     -1934.5364    
   1965000   320.47319      1565.0759     -2309.2704     -1895.4155    
   1965500   304.10018      1444.4506     -2322.2722     -1929.5339    
   1966000   287.77941      1810.9422     -2310.2725     -1938.6184    
   1966500   307.7046       623.95104     -2318.1245     -1920.7115    
   1967000   295.37464      1917.031      -2283.0536     -1901.5845    
   1967500   287.16587      168.23251     -2316.7768     -1945.9234    
   1968000   289.71474      1059.3891     -2299.0603     -1925.0055    
   1968500   313.54256      1922.8723     -2276.3294     -1871.4789    
   1969000   295.07514      1380.6525     -2278.4048     -1897.3274    
   1969500   303.97227      2582.8197     -2332.609      -1940.1022    
   1970000   300.89859      1180.1121     -2324.2012     -1935.5638    
   1970500   307.35319      986.48427     -2283.7222     -1886.8623    
   1971000   294.12916      1097.8574     -2298.8935     -1918.994     
   1971500   294.29646     -533.50989     -2310.9008     -1930.9451    
   1972000   302.98864      1361.0651     -2300.9767     -1909.7699    
   1972500   299.32181      2487.8476     -2272.7629     -1886.3057    
   1973000   283.42238      1256.618      -2307.4411     -1941.4947    
   1973500   307.04399     -202.78577     -2349.9152     -1953.4984    
   1974000   309.18828     -112.13476     -2336.898      -1937.6888    
   1974500   299.8732       2651.4862     -2283.4954     -1896.2383    
   1975000   303.52671      803.1474      -2317.8723     -1925.8901    
   1975500   294.22045      1476.6968     -2332.6436     -1952.7744    
   1976000   306.60481      1675.9075     -2305.9803     -1910.0149    
   1976500   313.04325      1328.4529     -2332.7207     -1928.5371    
   1977000   300.71317      331.26654     -2361.5401     -1973.5682    
   1977500   292.1878       1239.5421     -2328.4935     -1951.3477    
   1978000   290.71679      1061.4293     -2298.9998     -1923.6742    
   1978500   301.14284     -564.35872     -2323.1332     -1934.3317    
   1979000   303.01409      1491.6963     -2349.5595     -1958.5408    
   1979500   314.4605       2605.4531     -2325.872      -1920.1237    
   1980000   302.98834      913.78302     -2322.5912     -1931.5035    
   1980500   303.56951      964.50691     -2319.2824     -1927.578     
   1981000   315.38349      866.5842      -2302.5376     -1895.3769    
   1981500   289.13254      501.82292     -2325.084      -1951.614     
   1982000   291.2078      -393.65673     -2320.1518     -1944.1838    
   1982500   299.61717      1211.3655     -2294.7639     -1907.8354    
   1983000   288.13203      524.76777     -2288.9794     -1917.3109    
   1983500   276.82264      999.12931     -2291.0696     -1933.7612    
   1984000   286.64596     -83.61916      -2325.0622     -1955.1676    
   1984500   312.08277      290.49414     -2312.8694     -1909.78      
   1985000   308.57908      2113.9975     -2321.9202     -1924.7294    
   1985500   300.80972      1308.3201     -2337.4081     -1949.0741    
   1986000   305.1077       476.02774     -2338.3136     -1944.4326    
   1986500   309.71986      2251.7427     -2284.8495     -1885.2616    
   1987000   305.68516      1843.3385     -2329.8741     -1935.4112    
   1987500   284.57194     -17.269554     -2325.2908     -1957.9342    
   1988000   306.74235      770.25832     -2328.0389     -1932.6089    
   1988500   306.45971     -122.2851      -2297.6562     -1902.9193    
   1989000   295.99246      1129.8254     -2340.7557     -1958.7641    
   1989500   280.56614      1212.1741     -2313.0807     -1950.8896    
   1990000   326.90126      2589.1091     -2326.5045     -1904.4401    
   1990500   301.69743      913.2536      -2323.3213     -1933.7977    
   1991000   295.73793      2413.8111     -2313.2598     -1931.2737    
   1991500   301.61021      1072.2342     -2285.4617     -1896.0343    
   1992000   305.84492     -763.49865     -2343.3166     -1949.0134    
   1992500   296.23652      1105.7333     -2307.7026     -1925.8309    
   1993000   304.29434      2141.9495     -2305.322      -1912.4525    
   1993500   302.36176      982.33913     -2324.5556     -1934.2255    
   1994000   305.78099      503.4829      -2310.05       -1916.7842    
   1994500   299.38828      608.86446     -2291.4428     -1906.6194    
   1995000   300.25973      243.09617     -2334.0252     -1947.6109    
   1995500   314.00148     -132.72524     -2311.5376     -1906.5522    
   1996000   302.55309      425.44984     -2284.8497     -1894.1836    
   1996500   305.35536     -251.39637     -2318.0715     -1924.0445    
   1997000   279.06473      753.19929     -2338.7329     -1978.7104    
   1997500   311.76776      164.88824     -2352.2104     -1949.7843    
   1998000   292.99676      106.19604     -2303.0289     -1924.9311    
   1998500   312.14117      1336.0997     -2301.165      -1898.0788    
   1999000   322.25352      810.68575     -2286.3556     -1870.3215    
   1999500   308.32303      1649.6015     -2327.145      -1928.9666    
   2000000   303.4873       1800.4893     -2315.4738     -1923.528     
   2000500   334.22511      2280.7134     -2306.6786     -1875.0422    
   2001000   292.57051      504.39001     -2315.2684     -1937.3863    
   2001500   283.62229      288.0628      -2301.6234     -1935.3303    
   2002000   312.49106      2415.6788     -2290.5545     -1886.986     
   2002500   297.5828       656.02531     -2300.5453     -1916.2223    
   2003000   286.1207       84.16673      -2314.8059     -1945.4981    
   2003500   285.16917      293.94746     -2317.6743     -1949.7814    
   2004000   295.03879      1328.9087     -2297.5333     -1916.5358    
   2004500   315.39194      1509.2091     -2302.8854     -1895.527     
   2005000   288.76495     -22.017735     -2318.1366     -1945.1929    
   2005500   300.27123     -91.883453     -2290.8888     -1903.2735    
   2006000   285.4815       1819.9749     -2290.7855     -1922.0447    
   2006500   303.29559      2753.3392     -2328.9282     -1937.4037    
   2007000   315.08343      151.54817     -2333.2011     -1926.3136    
   2007500   317.53202      765.90759     -2295.0896     -1885.2397    
   2008000   304.64511      550.10665     -2339.2048     -1945.843     
   2008500   303.96452      377.75011     -2326.4848     -1933.9501    
   2009000   312.46435      914.06602     -2287.4971     -1884.3667    
   2009500   286.39899      372.01092     -2309.6147     -1939.7489    
   2010000   299.00064     -116.80474     -2321.7863     -1935.7243    
   2010500   316.97966      1884.8004     -2309.6345     -1900.369     
   2011000   313.63631      729.41656     -2284.9111     -1879.7426    
   2011500   289.97003      2683.1533     -2307.0935     -1932.9662    
   2012000   287.23436      123.0278      -2315.8307     -1944.9992    
   2012500   324.92417      1765.2344     -2321.3928     -1901.7065    
   2013000   288.71287      899.04896     -2300.3264     -1927.5036    
   2013500   278.37138     -261.5936      -2335.3783     -1975.9129    
   2014000   300.1838       1520.4347     -2323.9353     -1936.3785    
   2014500   302.65035      729.89018     -2297.592      -1906.7939    
   2015000   291.40142      1670.176      -2303.6259     -1927.2012    
   2015500   291.79206      30.695979     -2318.0087     -1941.4004    
   2016000   301.36892      2467.3404     -2297.4159     -1909.5598    
   2016500   283.90399     -10.855966     -2322.9262     -1957.6925    
   2017000   305.4805       88.568151     -2348.1771     -1953.8115    
   2017500   304.32917     -167.95863     -2313.7217     -1920.7155    
   2018000   291.63076      2907.1451     -2298.1109     -1921.4661    
   2018500   278.82838     -173.13479     -2325.2564     -1965.2557    
   2019000   280.19048      1191.8952     -2309.2324     -1947.5234    
   2019500   302.06408      1452.8901     -2310.5298     -1920.8647    
   2020000   295.87099      181.6197      -2306.4644     -1924.4485    
   2020500   283.41358      863.39415     -2340.2469     -1974.2603    
   2021000   286.48769      1993.5812     -2307.3        -1937.4076    
   2021500   311.18994      1051.6997     -2328.1148     -1926.3714    
   2022000   273.08857      1669.9494     -2311.8295     -1959.3881    
   2022500   274.82114     -484.68        -2330.4703     -1975.6281    
   2023000   319.66582      1105.1978     -2330.5292     -1917.8198    
   2023500   309.32995      1027.5403     -2293.7086     -1894.2413    
   2024000   296.98917      1462.2847     -2323.2556     -1940.1095    
   2024500   291.17494      242.43989     -2317.7113     -1942.0886    
   2025000   307.06393      1175.8454     -2282.0224     -1885.8813    
   2025500   320.72203      1191.6248     -2331.2499     -1917.1228    
   2026000   297.36612      2029.5587     -2311.0942     -1927.3566    
   2026500   326.05007     -895.85279     -2338.0626     -1917.3934    
   2027000   296.62822      194.00658     -2331.1617     -1948.2156    
   2027500   317.70261      504.11849     -2333.8999     -1923.9084    
   2028000   297.39284      1992.735      -2318.722      -1934.7416    
   2028500   305.01051      2081.6518     -2345.6627     -1952.0037    
   2029000   308.46554      2632.1505     -2300.2704     -1901.9083    
   2029500   297.74516      564.36817     -2317.1657     -1932.61      
   2030000   282.89108      1245.5699     -2332.8222     -1967.4439    
   2030500   320.42256      207.75773     -2316.6641     -1902.943     
   2031000   297.8192       2860.8037     -2306.2992     -1921.6904    
   2031500   313.55281      1517.9871     -2343.9965     -1939.2       
   2032000   314.03685      2645.7946     -2287.9729     -1882.6573    
   2032500   285.39492     -423.33997     -2293.6941     -1925.2604    
   2033000   291.71269      1642.4767     -2306.3962     -1929.8894    
   2033500   299.02509      2337.3048     -2296.7619     -1910.6951    
   2034000   330.04809      1589.2015     -2293.4181     -1867.2034    
   2034500   307.43515      760.56436     -2318.1782     -1921.1551    
   2035000   295.19529      330.86345     -2319.8069     -1938.7874    
   2035500   306.21537      2529.877      -2288.5824     -1893.3803    
   2036000   280.92416      2045.2121     -2272.6766     -1909.962     
   2036500   269.68473     -694.2031      -2304.0858     -1956.1887    
   2037000   295.95614      586.33343     -2322.9713     -1940.6476    
   2037500   337.35116      1519.4653     -2324.7019     -1889.145     
   2038000   305.85541      901.51444     -2261.9893     -1867.7789    
   2038500   303.56542      2427.5892     -2307.4329     -1915.3755    
   2039000   301.82116      1258.8288     -2328.3804     -1939.4956    
   2039500   299.72149      1297.2709     -2269.0041     -1882.5859    
   2040000   306.07587     -329.03458     -2305.6111     -1911.0622    
   2040500   316.83847      1976.978      -2351.6652     -1942.5011    
   2041000   294.48863      251.0623      -2350.7754     -1970.5736    
   2041500   305.58928      1577.0199     -2328.003      -1933.2488    
   2042000   304.84137      864.6817      -2305.5443     -1912.086     
   2042500   290.60627      1043.7251     -2338.6101     -1963.3829    
   2043000   305.93372      1019.8926     -2335.8173     -1940.614     
   2043500   298.25692      1876.4006     -2318.1949     -1933.4194    
   2044000   299.33977      1478.3284     -2331.2116     -1945.0008    
   2044500   292.76124      344.05561     -2297.1861     -1919.4809    
   2045000   321.68027      1669.237      -2303.6921     -1888.4795    
   2045500   300.08641      1381.0074     -2314.3507     -1927.0049    
   2046000   300.95546      485.53643     -2325.4261     -1936.8694    
   2046500   317.58718      1108.7158     -2324.5701     -1914.4463    
   2047000   320.32566      1732.5634     -2293.8418     -1880.1822    
   2047500   305.6364       2185.6106     -2331.2041     -1936.47      
   2048000   307.73981      1189.5043     -2325.6301     -1928.3018    
   2048500   299.41718      338.93949     -2273.609      -1886.6971    
   2049000   313.41345      2205.7494     -2295.9481     -1891.2119    
   2049500   297.83766      1527.0713     -2300.5326     -1915.8892    
   2050000   295.28603      2016.3314     -2314.4774     -1933.2169    
   2050500   279.85899      1153.5123     -2308.8259     -1947.4694    
   2051000   290.00882      2649.2908     -2293.4768     -1918.9429    
   2051500   289.75442      285.12142     -2296.935      -1922.8332    
   2052000   281.91188      625.00917     -2328.789      -1964.985     
   2052500   305.16195      1196.9766     -2322.5077     -1928.3955    
   2053000   301.00561      765.40784     -2302.9819     -1914.3402    
   2053500   313.04967      1636.1454     -2283.0678     -1879.092     
   2054000   301.16839      884.44997     -2297.9336     -1908.9646    
   2054500   297.35186      1776.8456     -2320.4027     -1936.4124    
   2055000   293.56746     -578.86684     -2332.1091     -1952.9983    
   2055500   311.95653      835.32267     -2337.4379     -1934.579     
   2056000   304.83524      354.762       -2312.0039     -1918.3756    
   2056500   308.26503      748.85732     -2367.2101     -1969.2323    
   2057000   298.19027      127.08722     -2351.1579     -1966.17      
   2057500   300.25289     -436.64312     -2318.8423     -1931.1996    
   2058000   300.32907     -270.02562     -2303.8023     -1916.0559    
   2058500   276.83851     -35.242806     -2300.1774     -1943.7619    
   2059000   294.71837     -91.932709     -2306.7936     -1926.5719    
   2059500   301.1069       1417.5674     -2282.3885     -1893.6657    
   2060000   303.91593      274.07953     -2303.0375     -1910.9501    
   2060500   286.93309     -798.71045     -2315.3462     -1945.1717    
   2061000   286.47832      990.56038     -2320.4074     -1950.4943    
   2061500   302.79849      1937.484      -2304.7077     -1913.8673    
   2062000   299.83147     -555.49745     -2293.9998     -1906.9286    
   2062500   304.25929      381.88476     -2349.5486     -1956.7298    
   2063000   299.26098      1755.5395     -2310.2838     -1923.9168    
   2063500   312.07882      877.75595     -2312.405      -1909.5914    
   2064000   287.97519      587.05318     -2311.5307     -1939.8464    
   2064500   288.91953      687.98992     -2349.3509     -1976.4668    
   2065000   273.4382       621.51854     -2347.3811     -1994.3589    
   2065500   287.55989      722.53955     -2302.0197     -1930.8368    
   2066000   290.10648      1416.4725     -2289.9473     -1915.3638    
   2066500   300.22453      113.38114     -2348.4281     -1960.9317    
   2067000   304.92859      102.45857     -2331.0958     -1937.2299    
   2067500   309.09698      136.26489     -2338.9372     -1939.6757    
   2068000   299.22829      850.88919     -2322.7652     -1936.3366    
   2068500   313.634        1039.6002     -2304.3022     -1899.5023    
   2069000   300.61705     -58.944136     -2334.9334     -1946.9641    
   2069500   312.80779      1489.3794     -2345.8882     -1941.9526    
   2070000   306.26255      2254.8433     -2327.607      -1932.1065    
   2070500   303.2393      -753.36469     -2336.1506     -1944.548     
   2071000   316.08793      938.55886     -2310.1865     -1902.1937    
   2071500   305.97463      546.05144     -2300.5852     -1905.393     
   2072000   298.87119     -300.69945     -2338.4426     -1952.6808    
   2072500   295.32277      1774.3488     -2311.9818     -1931.8068    
   2073000   305.77684     -470.19813     -2263.1171     -1868.3142    
   2073500   305.86463      942.4184      -2285.5005     -1890.6274    
   2074000   301.49429      1344.8118     -2318.0385     -1928.5997    
   2074500   284.4039       2174.6317     -2338.4557     -1971.4679    
   2075000   273.39299      229.24809     -2344.9014     -1992.5795    
   2075500   278.97543      1675.835      -2298.8564     -1938.8046    
   2076000   304.29681     -235.57795     -2295.8308     -1902.7324    
   2076500   299.80453      454.14721     -2298.9932     -1911.995     
   2077000   294.46403      1047.4966     -2317.4625     -1937.9643    
   2077500   320.32704      805.77762     -2316.8464     -1904.4143    
   2078000   314.07304      753.27929     -2291.4171     -1886.5149    
   2078500   289.00362      1715.1061     -2308.2287     -1935.6643    
   2079000   320.68908     -184.02101     -2340.5095     -1927.0605    
   2079500   295.50782      2054.6703     -2274.4012     -1893.6987    
   2080000   290.42629      2496.3646     -2310.5468     -1937.4851    
   2080500   280.46027      166.87462     -2297.6076     -1936.0671    
   2081000   290.77571      80.365363     -2297.8475     -1923.3265    
   2081500   310.34565      1037.8427     -2278.7932     -1878.9727    
   2082000   300.70286      457.52961     -2308.3373     -1920.1812    
   2082500   296.23766      1696.4944     -2302.7423     -1920.7512    
   2083000   311.71384      1271.8625     -2288.3199     -1887.6164    
   2083500   283.80333      453.16169     -2302.0956     -1935.6666    
   2084000   311.39879      659.16074     -2333.1556     -1931.0795    
   2084500   305.07577      1816.3029     -2274.5693     -1880.6191    
   2085000   310.21919      527.66129     -2311.0213     -1910.5715    
   2085500   299.09685      839.81781     -2325.6861     -1939.808     
   2086000   295.31882      838.39136     -2366.6172     -1985.6052    
   2086500   307.35743      1312.2388     -2323.6871     -1926.8898    
   2087000   304.19008      223.46823     -2300.0765     -1907.2581    
   2087500   295.98363      1198.4419     -2337.6178     -1955.4016    
   2088000   298.58892      1262.5994     -2323.2932     -1937.6878    
   2088500   295.97692      1431.8587     -2292.1434     -1909.8644    
   2089000   291.71741     -491.11268     -2301.4565     -1924.7091    
   2089500   312.58157      1390.6244     -2337.863      -1934.2932    
   2090000   291.48883      568.70445     -2306.0625     -1929.626     
   2090500   298.89914      3141.5973     -2315.8367     -1930.0099    
   2091000   293.82524      3067.2652     -2333.7722     -1954.4123    
   2091500   303.81296      2493.4391     -2312.0258     -1919.9267    
   2092000   294.92898      247.56994     -2291.8099     -1910.9074    
   2092500   267.52532      187.75703     -2314.7955     -1969.3399    
   2093000   304.11262      1124.8187     -2338.8944     -1946.2805    
   2093500   294.12492      1361.9902     -2298.3745     -1918.5467    
   2094000   314.68241      1218.0777     -2301.0449     -1894.6568    
   2094500   293.6875       1975.2919     -2292.96       -1913.7646    
   2095000   293.45707      1677.3689     -2320.4898     -1941.6276    
   2095500   300.57534      85.814069     -2342.8035     -1954.653     
   2096000   311.65501      779.72094     -2332.502      -1929.9023    
   2096500   308.64282      1709.8347     -2307.5585     -1908.8776    
   2097000   305.24911      1928.9103     -2304.6829     -1910.6445    
   2097500   295.67325      463.67281     -2336.4887     -1954.6426    
   2098000   296.97521      1806.3292     -2296.451      -1913.1447    
   2098500   314.06479      1911.3408     -2305.3576     -1900.0657    
   2099000   310.61827      2452.4462     -2321.4965     -1920.4566    
   2099500   299.65392      793.88586     -2338.9619     -1952.0126    
   2100000   299.13827      1227.0853     -2279.0658     -1892.7274    
   2100500   313.23299      3088.884      -2305.9929     -1901.6022    
   2101000   305.36095      1707.8878     -2336.4579     -1942.2299    
   2101500   290.07413      1679.7352     -2303.7502     -1929.2417    
   2102000   330.14254      2485.715      -2312.4941     -1886.1559    
   2102500   301.78795      289.41779     -2320.6919     -1930.9673    
   2103000   282.59382      137.13431     -2327.0931     -1962.1547    
   2103500   317.80566      1306.3206     -2319.2738     -1908.8699    
   2104000   301.73579      886.4244      -2317.11       -1927.4385    
   2104500   297.45124      244.17199     -2328.2511     -1944.11      
   2105000   304.12156      876.40279     -2320.9896     -1928.4988    
   2105500   301.17433      1001.2472     -2300.9856     -1912.0534    
   2106000   296.21683      96.213449     -2347.4547     -1965.0135    
   2106500   288.45674      1963.6297     -2317.7914     -1945.4559    
   2107000   304.68395      354.77876     -2297.0061     -1903.5643    
   2107500   318.80273      1330.2757     -2348.7037     -1937.0849    
   2108000   302.40076      1065.5485     -2344.0253     -1953.477     
   2108500   292.33186      1861.4312     -2307.5845     -1930.1447    
   2109000   319.83781      1795.7894     -2292.1649     -1879.1294    
   2109500   294.97655      127.02833     -2311.9374     -1931.0541    
   2110000   299.55048      921.69717     -2320.6097     -1933.96      
   2110500   315.89515      667.2169      -2335.7461     -1928.1139    
   2111000   301.80341      981.01293     -2277.4804     -1887.8211    
   2111500   297.83339      349.50268     -2317.657      -1933.1162    
   2112000   313.94655      1479.9286     -2339.1326     -1933.9852    
   2112500   308.69905      1595.3089     -2282.1032     -1883.7081    
   2113000   308.13492      614.81638     -2301.725      -1904.203     
   2113500   299.1083       431.87535     -2324.6688     -1938.6396    
   2114000   314.9698       1720.3638     -2319.2231     -1912.6769    
   2114500   315.4484       588.13453     -2288.707      -1881.2631    
   2115000   300.23523      859.76224     -2303.1135     -1915.7225    
   2115500   284.49197      1583.5564     -2317.6811     -1950.7535    
   2116000   309.57459     -525.0731      -2348.9979     -1949.7687    
   2116500   313.50034      157.61239     -2310.058      -1905.3743    
   2117000   309.40555      1354.9639     -2318.0054     -1919.7017    
   2117500   268.87443      1398.2167     -2308.9571     -1961.7193    
   2118000   297.08948      202.82405     -2298.0325     -1914.5681    
   2118500   332.03288      717.20666     -2347.8574     -1919.0884    
   2119000   284.65821      1589.2003     -2310.3497     -1943.0984    
   2119500   308.76352     -0.45055327    -2341.8626     -1943.2573    
   2120000   288.17805      1022.2864     -2305.9465     -1933.9871    
   2120500   293.66403     -108.52623     -2290.9508     -1911.7972    
   2121000   307.95363      23.057256     -2277.5301     -1879.9391    
   2121500   308.38809      1451.1281     -2342.6272     -1944.7736    
   2122000   310.88983      42.60572      -2332.0131     -1930.4344    
   2122500   307.72985      350.01627     -2283.109      -1886.0778    
   2123000   294.92793      874.81082     -2258.876      -1878.0128    
   2123500   305.24197      2143.3843     -2308.154      -1914.7939    
   2124000   288.64317     -115.59486     -2308.7018     -1936.0731    
   2124500   310.78218      180.61543     -2331.5532     -1931.1995    
   2125000   309.74081      256.29681     -2284.4645     -1885.4261    
   2125500   290.41784      1697.6387     -2307.8685     -1932.8995    
   2126000   293.8736       2348.8965     -2302.8892     -1923.4394    
   2126500   297.98596      1056.9655     -2280.0034     -1895.0815    
   2127000   295.60341      343.56121     -2274.1782     -1892.6221    
   2127500   292.35279      2016.1622     -2316.791      -1939.4243    
   2128000   303.89365      1325.0455     -2331.8683     -1940.2136    
   2128500   296.44019      1766.463      -2268.0663     -1886.0118    
   2129000   300.61046     -8.4763951     -2327.341      -1939.028     
   2129500   303.93554      904.16009     -2326.6958     -1934.8926    
   2130000   315.31641      1429.6195     -2288.4484     -1882.5041    
   2130500   312.23098      1105.3887     -2311.2983     -1908.1767    
   2131000   301.60502      712.84047     -2321.519      -1932.2045    
   2131500   293.63644      1214.191      -2331.1288     -1952.2041    
   2132000   280.42527      1106.0607     -2340.1409     -1978.3561    
   2132500   315.68827      119.92347     -2332.9476     -1925.6925    
   2133000   306.88077      1825.6341     -2353.3416     -1957.4552    
   2133500   297.00037      365.68134     -2349.4486     -1966.0781    
   2134000   298.66373      3599.6154     -2303.3431     -1917.7459    
   2134500   303.8113       421.31969     -2328.444      -1936.1637    
   2135000   282.31385      372.60161     -2330.301      -1965.818     
   2135500   292.60445      713.73878     -2298.6295     -1921.1314    
   2136000   295.64325      2524.5179     -2296.6443     -1915.1254    
   2136500   297.55453      1792.879      -2354.3613     -1970.2973    
   2137000   304.71854      1755.2504     -2344.0301     -1950.7154    
   2137500   313.85478      1378.0761     -2329.5121     -1924.4015    
   2138000   308.01291      1176.4445     -2313.6725     -1915.8296    
   2138500   313.53752      1867.8488     -2302.6858     -1898.0409    
   2139000   298.56454     -75.100057     -2328.5279     -1943.0704    
   2139500   313.57215      2866.7532     -2329.2102     -1924.1286    
   2140000   321.83359      214.23668     -2298.6404     -1883.0386    
   2140500   294.7256       511.82658     -2313.593      -1933.0973    
   2141000   305.88117      1235.307      -2317.9131     -1923.0082    
   2141500   301.62618      1207.7785     -2268.6219     -1879.266     
   2142000   309.18803     -586.32228     -2292.297      -1894.8018    
   2142500   276.19876      1683.6152     -2281.8843     -1926.6676    
   2143000   294.67584      1130.0767     -2336.8369     -1958.2939    
   2143500   301.31144      93.532538     -2345.594      -1956.8867    
   2144000   298.96997      1708.2809     -2294.4903     -1908.767     
   2144500   313.13197      1895.702      -2324.1117     -1920.0697    
   2145000   288.7053       1553.2091     -2317.5086     -1944.7548    
   2145500   298.42561      1576.9023     -2293.2204     -1908.0718    
   2146000   305.13091     -530.34013     -2317.5797     -1923.6127    
   2146500   286.6723       1001.4527     -2317.7062     -1947.5899    
   2147000   290.00609     -164.06043     -2335.0622     -1960.6446    
   2147500   311.07285      1286.3255     -2318.5086     -1916.7766    
   2148000   281.39949      396.83613     -2316.1672     -1952.7534    
   2148500   288.27509      276.61685     -2272.4407     -1900.1444    
   2149000   296.14241      2399.6479     -2312.7753     -1930.3114    
   2149500   288.82242     -40.715244     -2328.1272     -1955.2164    
   2150000   293.76264      151.24669     -2306.9798     -1927.5816    
   2150500   314.07326      1896.2743     -2324.3576     -1918.7473    
   2151000   284.37112      2163.5177     -2332.3688     -1965.218     
   2151500   303.60354     -981.98147     -2324.6608     -1932.6878    
   2152000   288.8927       906.98469     -2291.7027     -1918.6257    
   2152500   296.79979      851.101       -2340.6131     -1957.3175    
   2153000   296.31841      1365.3017     -2357.936      -1975.3385    
   2153500   296.12788     -29.508372     -2298.1962     -1915.8466    
   2154000   308.44169      1139.6502     -2309.2681     -1910.9233    
   2154500   286.16138      448.76218     -2326.9069     -1957.3166    
   2155000   302.52126      2084.5583     -2309.9861     -1919.2902    
   2155500   313.47636      1369.5692     -2294.4136     -1889.5745    
   2156000   303.08787      1746.7484     -2318.3588     -1926.9566    
   2156500   305.48093     -237.89803     -2330.7703     -1936.2702    
   2157000   292.51548      1982.9967     -2303.8427     -1926.1845    
   2157500   298.93566      1031.5109     -2280.8265     -1894.9826    
   2158000   287.55767     -183.65854     -2319.131      -1947.8628    
   2158500   293.17646      1645.8463     -2317.1562     -1938.7308    
   2159000   289.00265      791.90927     -2289.3044     -1916.8722    
   2159500   306.16972      1737.6765     -2261.0605     -1866.0807    
   2160000   292.474        636.79236     -2294.0702     -1916.3582    
   2160500   302.58175      2573.4505     -2310.2684     -1919.6082    
   2161000   283.18547      2014.7914     -2325.1549     -1959.5366    
   2161500   293.08759      561.07499     -2336.9114     -1958.5058    
   2162000   323.67694      456.17024     -2320.1543     -1902.5406    
   2162500   289.85347     -273.51159     -2321.8002     -1947.7928    
   2163000   281.50279      70.413717     -2287.4297     -1923.9923    
   2163500   306.0151      -1012.5936     -2291.0674     -1895.9775    
   2164000   307.19845      763.17627     -2323.5059     -1926.9078    
   2164500   294.76614     -525.40333     -2327.3699     -1946.7036    
   2165000   296.90227      43.640639     -2307.7543     -1924.4329    
   2165500   321.86246      1710.8867     -2302.0265     -1886.7112    
   2166000   308.96702      552.30471     -2260.1017     -1861.1914    
   2166500   304.85468     -196.70244     -2323.6744     -1930.2476    
   2167000   293.99999      1635.152      -2321.8768     -1942.2873    
   2167500   295.56938      858.25149     -2279.2712     -1897.6776    
   2168000   299.6814       3139.5218     -2286.4278     -1899.606     
   2168500   298.83994      702.46251     -2324.2752     -1938.7312    
   2169000   310.60677      494.63366     -2304.464      -1903.4346    
   2169500   285.18046      1871.2667     -2302.8287     -1934.8688    
   2170000   295.75859      1339.5113     -2337.9541     -1956.1117    
   2170500   297.34475      1079.3332     -2284.856      -1901.1671    
   2171000   307.10604      3014.3667     -2306.8304     -1910.2239    
   2171500   294.81292      512.8509      -2316.9822     -1936.3309    
   2172000   298.91903      849.55728     -2321.1952     -1935.2471    
   2172500   304.04439     -497.87178     -2289.7257     -1897.174     
   2173000   298.42554      732.73439     -2316.4791     -1931.0509    
   2173500   294.97152      546.7345      -2337.2602     -1956.3478    
   2174000   325.09353      2849.8628     -2328.9262     -1909.1032    
   2174500   295.10666      1045.2696     -2322.8308     -1941.7155    
   2175000   302.13137      1261.9524     -2343.9269     -1953.75      
   2175500   317.93528      1141.05       -2317.7152     -1907.1638    
   2176000   319.99864      495.4287      -2319.1964     -1906.1275    
   2176500   283.09503      1254.7418     -2321.7775     -1956.3699    
   2177000   318.96081      487.45158     -2329.3904     -1917.582     
   2177500   291.19164      1928.7462     -2267.6792     -1891.7233    
   2178000   290.74337      1318.9079     -2327.5815     -1952.1657    
   2178500   288.99836      2550.5        -2328.6047     -1955.3493    
   2179000   298.30336     -1497.7492     -2286.8044     -1901.6245    
   2179500   297.34384      752.36812     -2304.3158     -1920.3756    
   2180000   296.10555      114.16077     -2349.4393     -1967.0942    
   2180500   312.71517      1787.6242     -2339.5211     -1935.7192    
   2181000   298.37888      516.01379     -2283.1309     -1897.8046    
   2181500   313.33323      1863.5495     -2278.4887     -1873.8463    
   2182000   283.77864      1297.693      -2291.9446     -1925.4563    
   2182500   302.77097      1604.2306     -2348.5523     -1957.5403    
   2183000   303.5305       2379.2863     -2298.0186     -1906.0059    
   2183500   310.40114      2470.6439     -2326.6142     -1925.7844    
   2184000   295.92056      1785.3047     -2325.6901     -1943.5442    
   2184500   291.61296      1998.9832     -2283.6041     -1907.031     
   2185000   324.16359      2331.7537     -2271.2045     -1852.6488    
   2185500   312.41259      775.82766     -2309.7517     -1906.3197    
   2186000   299.25637     -649.38126     -2328.9982     -1942.5611    
   2186500   295.26701      989.61558     -2342.6698     -1961.3688    
   2187000   302.82181      367.8189      -2315.4379     -1924.3538    
   2187500   295.95325      151.83761     -2300.6599     -1918.4532    
   2188000   284.07479      1494.1093     -2336.0139     -1969.1277    
   2188500   297.28243      2803.6748     -2326.9239     -1943.0977    
   2189000   318.28542      978.82191     -2328.2121     -1917.3799    
   2189500   283.10408     -328.27668     -2312.6818     -1947.3377    
   2190000   305.02702      967.6573      -2334.2239     -1940.7196    
   2190500   306.50305      2026.4312     -2307.4639     -1911.8083    
   2191000   305.17216      1662.2974     -2333.415      -1939.4109    
   2191500   299.76361      678.0323      -2316.0639     -1929.0403    
   2192000   292.08221      1812.9966     -2317.1053     -1939.9897    
   2192500   278.36612     -487.47443     -2310.025      -1950.6174    
   2193000   289.18253      8.2855425     -2287.0229     -1913.5211    
   2193500   303.5794       610.48089     -2335.9218     -1943.8585    
   2194000   290.07914      1271.8845     -2368.9931     -1994.3824    
   2194500   290.31554      1386.9021     -2317.7277     -1942.8327    
   2195000   301.31052      1131.4443     -2319.3946     -1930.367     
   2195500   309.65436      941.51546     -2347.9616     -1948.1711    
   2196000   298.20152      2781.3853     -2368.6177     -1983.5       
   2196500   301.3422       624.26272     -2313.3316     -1924.0078    
   2197000   307.50441      9.5507572     -2311.9966     -1914.88      
   2197500   311.39773      943.44913     -2329.3968     -1927.2506    
   2198000   287.61022      1056.5952     -2338.4591     -1967.0092    
   2198500   321.79195      2633.7777     -2332.5363     -1916.9872    
   2199000   310.57473     -403.83084     -2313.6539     -1912.6746    
   2199500   288.86754      1635.5298     -2330.3001     -1957.2779    
   2200000   280.98987     -1043.4105     -2362.1178     -1999.4153    
   2200500   307.90295      125.52179     -2342.9104     -1945.3746    
   2201000   307.02419      613.22201     -2309.4871     -1913.1878    
   2201500   312.40906      1240.1203     -2296.5006     -1893.3261    
   2202000   290.97503      1500.7575     -2328.6053     -1952.8148    
   2202500   298.17707      1496.4473     -2328.5251     -1943.4321    
   2203000   315.96158      1508.3002     -2316.1649     -1908.088     
   2203500   302.97199     -281.9815      -2325.9731     -1934.7451    
   2204000   285.95739      748.4999      -2330.0807     -1960.868     
   2204500   303.32309      569.36592     -2305.4739     -1913.8416    
   2205000   304.3197       592.51133     -2320.0353     -1927.0031    
   2205500   309.53852      1333.032      -2340.8626     -1941.0973    
   2206000   284.50724      786.44711     -2296.4954     -1929.4624    
   2206500   318.93563     -207.32499     -2303.9162     -1892.1333    
   2207000   286.98343      260.56614     -2302.0267     -1931.3981    
   2207500   291.39909      1939.2068     -2304.7738     -1928.4988    
   2208000   300.86858      159.29164     -2285.7959     -1897.2427    
   2208500   295.07066      496.49138     -2281.4296     -1900.4429    
   2209000   301.39997      269.46412     -2335.7575     -1946.5342    
   2209500   302.64533     -17.920432     -2302.9368     -1912.1785    
   2210000   297.13572      1324.7553     -2281.2908     -1897.67      
   2210500   302.41082      1006.7739     -2301.9764     -1911.3868    
   2211000   278.10654      767.41866     -2326.9126     -1967.7688    
   2211500   292.11804     -34.106805     -2323.563      -1946.308     
   2212000   304.61908      1668.8255     -2319.2983     -1925.8918    
   2212500   286.42764      1546.6788     -2338.8713     -1968.9309    
   2213000   304.28717      2112.4968     -2356.8907     -1964.0367    
   2213500   304.81244      821.01512     -2314.5243     -1921.2887    
   2214000   305.63378      1122.7008     -2317.5443     -1923.2259    
   2214500   298.72549      1092.4086     -2356.0918     -1970.5617    
   2215000   300.7391       418.36781     -2304.6654     -1916.5726    
   2215500   300.36682     -100.62887     -2288.3149     -1900.7735    
   2216000   312.95541      1150.4742     -2292.6071     -1888.4877    
   2216500   288.035        710.93837     -2311.136      -1939.4135    
   2217000   292.4653      -58.910985     -2300.6163     -1922.9954    
   2217500   316.76157      2231.9073     -2297.8136     -1888.7892    
   2218000   286.33952      358.95219     -2313.9239     -1944.19      
   2218500   308.56483      1403.9293     -2325.1905     -1926.8892    
   2219000   309.7611       1246.5152     -2281.1912     -1881.3516    
   2219500   303.29698      3329.8586     -2314.1871     -1922.8813    
   2220000   295.79755      1258.2281     -2336.4852     -1954.74      
   2220500   290.51613      720.54957     -2279.5542     -1904.479     
   2221000   307.5184       2474.7352     -2313.4872     -1916.4347    
   2221500   286.15963      1713.5415     -2304.7004     -1935.1728    
   2222000   302.52693      564.09048     -2323.1343     -1932.5223    
   2222500   281.02328      661.86875     -2347.3057     -1984.4924    
   2223000   295.62584      884.15129     -2321.3965     -1939.694     
   2223500   321.45239      941.23922     -2334.883      -1919.8054    
   2224000   292.85611      804.45836     -2335.1703     -1956.9521    
   2224500   288.19896      921.66797     -2312.0492     -1939.8594    
   2225000   292.05319      1187.8322     -2294.7816     -1917.6282    
   2225500   303.13906      1441.2192     -2338.1344     -1946.7537    
   2226000   295.84923     -926.36347     -2366.952      -1984.9414    
   2226500   310.8225       2775.1132     -2327.6552     -1926.3093    
   2227000   303.79592      1128.3292     -2327.8735     -1935.541     
   2227500   293.87645      1908.7655     -2327.819      -1948.3523    
   2228000   312.75779      1512.4671     -2312.273      -1908.3792    
   2228500   284.89553      1824.3445     -2305.1869     -1937.6775    
   2229000   308.89821      346.05943     -2354.2806     -1955.4608    
   2229500   312.30546      2535.4754     -2299.1127     -1895.8936    
   2230000   307.62218      727.6358      -2320.7287     -1923.4421    
   2230500   293.04778      780.76964     -2322.8238     -1944.3477    
   2231000   303.21296     -353.97876     -2306.6748     -1915.0506    
   2231500   302.29625      237.1776      -2305.939      -1915.5419    
   2232000   289.15215      955.04719     -2307.0446     -1933.6529    
   2232500   294.0618       258.25677     -2325.297      -1945.6214    
   2233000   294.50967      1691.781      -2314.5549     -1934.2211    
   2233500   301.02613      1987.5577     -2312.6827     -1924.0355    
   2234000   316.16992      850.24861     -2296.0045     -1887.693     
   2234500   307.01096      1455.3409     -2312.511      -1916.1377    
   2235000   276.49115      2273.7917     -2301.1229     -1944.1374    
   2235500   303.38801      881.01757     -2301.6534     -1909.8162    
   2236000   300.27205      499.81589     -2326.2475     -1938.5941    
   2236500   303.5544       1317.788      -2308.6217     -1916.6818    
   2237000   302.16538      1274.9793     -2294.9503     -1904.7991    
   2237500   292.97215      1652.9591     -2337.8804     -1959.4918    
   2238000   295.87745      319.08088     -2307.614      -1925.4566    
   2238500   308.88665      1098.4335     -2310.2605     -1911.3759    
   2239000   285.09601      2098.5988     -2314.22       -1946.0385    
   2239500   301.53214     -68.309253     -2300.9924     -1911.7741    
   2240000   289.88561      2455.6843     -2270.1118     -1895.7613    
   2240500   293.51047      1534.3299     -2320.8783     -1942.484     
   2241000   282.39561      948.79987     -2293.3249     -1930.1082    
   2241500   321.0133      -1047.4587     -2301.0763     -1886.6323    
   2242000   294.39902     -1031.8477     -2305.263      -1925.0924    
   2242500   276.85861      2758.6469     -2294.8863     -1937.6378    
   2243000   300.66349      2691.0999     -2308.466      -1920.3532    
   2243500   299.29858      647.05956     -2299.6017     -1913.0764    
   2244000   285.49781      870.37617     -2324.637      -1956.1913    
   2244500   303.98866      747.21328     -2318.4401     -1925.8483    
   2245000   316.56034      1852.4767     -2315.0555     -1906.3129    
   2245500   291.25885      605.93172     -2336.9613     -1961.5454    
   2246000   312.70709      468.04993     -2344.8705     -1941.1744    
   2246500   308.30069      1075.7237     -2328.2999     -1930.7989    
   2247000   307.31127      2038.2521     -2327.1464     -1931.7016    
   2247500   297.14002      1177.992      -2328.2489     -1946.0764    
   2248000   289.1201       1358.2055     -2360.0416     -1987.1165    
   2248500   294.11093      239.22654     -2328.3714     -1948.4723    
   2249000   296.15013      856.12909     -2298.2984     -1917.1913    
   2249500   339.47075      616.47718     -2303.8439     -1865.4385    
   2250000   303.32119      979.51816     -2308.409      -1916.6932    
   2250500   297.55364      1020.6087     -2324.0344     -1939.809     
   2251000   301.62327      956.84495     -2347.9866     -1959.3824    
   2251500   273.46836     -1281.0269     -2313.8081     -1962.6363    
   2252000   299.09379      1400.4012     -2308.4882     -1923.9197    
   2252500   296.65649      1579.1125     -2328.1332     -1945.2085    
   2253000   313.03204      1313.6215     -2293.9453     -1889.8972    
   2253500   311.36197      1228.5716     -2322.5041     -1920.5194    
   2254000   294.87931     -17.331294     -2311.5479     -1930.8313    
   2254500   305.00673      554.70133     -2324.2356     -1931.1742    
   2255000   293.85653     -626.73396     -2356.0013     -1977.808     
   2255500   295.77001      1104.4813     -2340.1421     -1959.8158    
   2256000   285.54736      886.66233     -2288.7281     -1920.0629    
   2256500   303.60437      878.32576     -2323.3216     -1932.7791    
   2257000   279.7196       2049.2429     -2335.2969     -1974.7871    
   2257500   302.85556      1183.7588     -2315.601      -1924.7026    
   2258000   310.21726      1064.5835     -2332.4339     -1933.8368    
   2258500   292.48872      457.73816     -2328.0166     -1951.8893    
   2259000   303.91509      46.555133     -2309.2042     -1916.6419    
   2259500   293.8755       1945.872      -2280.5542     -1902.8286    
   2260000   283.64779     -750.84919     -2308.8642     -1943.2847    
   2260500   299.02855      1185.8425     -2349.3206     -1964.0908    
   2261000   319.52964      240.23342     -2317.2457     -1906.9819    
   2261500   281.6569      -857.86083     -2293.0659     -1930.0239    
   2262000   289.13637      1313.2833     -2344.5416     -1973.1198    
   2262500   296.54538      1494.8929     -2347.9406     -1965.7625    
   2263000   285.03077      619.25242     -2301.1551     -1934.585     
   2263500   300.60722      1211.8678     -2304.1492     -1917.3421    
   2264000   324.83382      1564.1185     -2294.8653     -1877.3344    
   2264500   282.67962     -66.605743     -2297.4311     -1933.0326    
   2265000   295.46025      1270.1135     -2291.1226     -1910.2439    
   2265500   306.15722      679.31477     -2311.6105     -1917.2579    
   2266000   315.3043      -17.270669     -2372.3352     -1965.0762    
   2266500   295.30155      2406.3552     -2301.2238     -1919.7642    
   2267000   312.1492      -80.36079      -2325.469      -1922.2588    
   2267500   286.63065      2749.5191     -2328.3213     -1958.2551    
   2268000   270.10817      384.32633     -2346.3032     -1997.5355    
   2268500   294.3693       552.89529     -2326.6659     -1946.5498    
   2269000   301.95709      2407.8898     -2301.3579     -1911.5749    
   2269500   308.22406      946.56108     -2310.6041     -1912.5994    
   2270000   280.79224     -305.58238     -2324.8597     -1962.3885    
   2270500   295.83946      2425.2368     -2300.2363     -1918.2902    
   2271000   298.58311      987.03614     -2293.6219     -1907.9646    
   2271500   280.67544      858.55071     -2312.3656     -1949.9649    
   2272000   294.47084      358.37446     -2318.6356     -1938.5524    
   2272500   308.38887      511.96884     -2295.177      -1897.0868    
   2273000   282.21773      1306.5289     -2307.9952     -1943.6006    
   2273500   295.55861      1372.0603     -2326.921      -1945.2916    
   2274000   306.22328      16.356527     -2327.9249     -1932.4348    
   2274500   279.73238      1338.6891     -2320.4362     -1959.2197    
   2275000   297.31536      1383.2916     -2300.0938     -1916.1446    
   2275500   300.13812      2014.7462     -2307.9273     -1920.2678    
   2276000   291.02055     -282.11185     -2352.019      -1976.1768    
   2276500   308.8411       2296.6571     -2342.4036     -1943.4843    
   2277000   293.74088     -97.663908     -2291.2423     -1911.9568    
   2277500   324.86844      1251.3072     -2282.3307     -1862.7569    
   2278000   291.03076      1375.168      -2281.596      -1905.7119    
   2278500   296.74349      862.19147     -2327.0322     -1943.8704    
   2279000   280.78116      864.61363     -2319.9311     -1957.3404    
   2279500   297.97937      1573.497      -2289.2648     -1904.4924    
   2280000   300.24575      1554.9716     -2319.8933     -1932.2505    
   2280500   287.52137      1498.542      -2346.6064     -1975.7075    
   2281000   290.14212     -2526.0987     -2311.343      -1936.866     
   2281500   307.39806      541.39701     -2303.6299     -1906.7462    
   2282000   277.37132      1455.3859     -2317.1292     -1959.0163    
   2282500   296.252        1697.9969     -2333.5995     -1951.077     
   2283000   303.21749      2246.1695     -2321.5324     -1930.0215    
   2283500   292.02826      781.25441     -2306.4157     -1929.6672    
   2284000   297.56243      1563.5334     -2308.8175     -1924.8853    
   2284500   292.80547      1738.4107     -2319.3886     -1941.5157    
   2285000   278.21318      814.08995     -2336.3365     -1977.3939    
   2285500   314.77971      668.30344     -2321.3319     -1915.2135    
   2286000   309.55649      533.04065     -2310.9935     -1911.5953    
   2286500   293.3027       234.82929     -2339.5894     -1961.0373    
   2287000   292.49953      528.3445      -2313.1471     -1935.8418    
   2287500   305.92449      1040.215      -2313.7627     -1918.71      
   2288000   307.68198      1279.0585     -2315.7571     -1918.8288    
   2288500   269.39184      672.20976     -2321.8259     -1974.0675    
   2289000   292.91733      1236.7927     -2320.4562     -1942.244     
   2289500   292.42442      316.69753     -2306.5647     -1929.0825    
   2290000   307.31124      608.98337     -2301.9897     -1907.1223    
   2290500   296.3853      -37.530071     -2306.6234     -1924.9136    
   2291000   303.86102     -347.32649     -2348.4177     -1957.845     
   2291500   305.63217      1069.6436     -2318.6636     -1924.048     
   2292000   307.53137      2559.6998     -2321.9113     -1926.7072    
   2292500   305.29284      425.67859     -2318.8085     -1925.5982    
   2293000   302.0853       381.71987     -2322.9538     -1933.8581    
   2293500   293.35966      1104.3514     -2330.9399     -1953.6478    
   2294000   305.86509      1898.2838     -2291.7688     -1897.8553    
   2294500   298.37075      327.07715     -2316.2386     -1932.7202    
   2295000   289.25558      515.37012     -2307.956      -1935.0891    
   2295500   295.60063      2270.908      -2309.859      -1929.3968    
   2296000   290.85513     -11.021607     -2311.4442     -1936.6751    
   2296500   307.48159      1374.5227     -2275.4886     -1879.1984    
   2297000   299.93383      1801.3176     -2307.9861     -1922.0967    
   2297500   286.02024      291.23822     -2290.983      -1922.2929    
   2298000   327.33592      324.15263     -2295.5722     -1874.8501    
   2298500   293.06031     -427.2705      -2296.5475     -1919.1846    
   2299000   305.19258      882.97742     -2325.566      -1931.486     
   2299500   294.70208      1239.0031     -2318.5364     -1937.8346    
   2300000   283.9813       682.40935     -2303.4876     -1937.8913    
   2300500   318.4083       828.51967     -2310.3594     -1899.369     
   2301000   289.10103      556.46626     -2302.9999     -1931.2974    
   2301500   300.07367      2544.3934     -2344.707      -1958.1616    
   2302000   293.07615      1403.0518     -2298.2327     -1919.9068    
   2302500   301.99203      2205.1509     -2304.7271     -1914.6977    
   2303000   292.89118      2246.0863     -2321.2963     -1943.2243    
   2303500   314.68139     -155.99531     -2330.0955     -1923.9765    
   2304000   324.20563      693.33571     -2289.9703     -1871.4453    
   2304500   302.15287      182.32346     -2316.666      -1926.7629    
   2305000   282.40497      1699.5029     -2312.5729     -1947.8451    
   2305500   313.42256      829.12301     -2329.2785     -1924.4768    
   2306000   321.7318       645.1881      -2305.6968     -1890.2855    
   2306500   306.56089      1827.1079     -2315.7052     -1919.7274    
   2307000   295.66948      510.7309      -2322.5081     -1940.7072    
   2307500   290.42128     -25.957977     -2312.2924     -1937.2844    
   2308000   321.74352      1232.9571     -2304.9769     -1889.4365    
   2308500   289.6912       323.23866     -2312.8222     -1938.6844    
   2309000   299.49843      1431.3966     -2327.5218     -1940.8058    
   2309500   301.91778      433.54763     -2288.4061     -1898.5881    
   2310000   314.22896      152.85175     -2296.8817     -1891.147     
   2310500   296.76043      792.00741     -2311.1234     -1927.987     
   2311000   296.85629      1462.985      -2330.3297     -1947.2786    
   2311500   286.33993      1379.9914     -2357.6799     -1988.2615    
   2312000   299.6019       3335.6318     -2320.32       -1933.5161    
   2312500   313.80461     -735.11224     -2309.828      -1904.5933    
   2313000   296.96627     -622.69002     -2330.7291     -1947.2365    
   2313500   300.57645      1823.8997     -2341.247      -1953.4366    
   2314000   312.94361      421.84284     -2324.7405     -1920.6424    
   2314500   292.47422     -166.60654     -2310.8458     -1933.2898    
   2315000   306.20942      2031.0583     -2281.7805     -1887.3187    
   2315500   305.81186      1937.2664     -2317.9404     -1923.0771    
   2316000   284.78266      1960.1973     -2302.2954     -1934.9626    
   2316500   315.4345      -147.38709     -2301.9862     -1894.6846    
   2317000   315.55817      1337.1375     -2318.4064     -1910.9647    
   2317500   301.67079      3.6168267     -2326.2017     -1936.7728    
   2318000   300.02954      1870.2488     -2321.1379     -1933.9618    
   2318500   298.74554      845.40008     -2357.893      -1972.093     
   2319000   315.45126      286.15356     -2325.318      -1918.0931    
   2319500   287.89234     -208.76422     -2284.1426     -1912.2348    
   2320000   287.37828      2190.9576     -2329.7894     -1958.7351    
   2320500   304.50857      1043.8006     -2331.6315     -1938.3751    
   2321000   308.97157      1333.9624     -2308.9666     -1910.2896    
   2321500   306.95786      134.80726     -2349.3795     -1953.1614    
   2322000   308.48251      1705.0147     -2310.7825     -1912.6486    
   2322500   311.1002       691.05222     -2313.5658     -1911.8828    
   2323000   287.31824      1081.2047     -2318.0679     -1947.0756    
   2323500   279.76461     -42.403432     -2360.6903     -1999.4391    
   2324000   280.35202     -1770.1947     -2309.9143     -1946.3395    
   2324500   313.87823      1802.0034     -2333.048      -1927.6703    
   2325000   302.0977       2091.488      -2364.9362     -1974.888     
   2325500   285.13378      2166.3663     -2315.5166     -1947.3784    
   2326000   312.4574      -225.97169     -2329.4053     -1926.1384    
   2326500   300.75208     -175.79192     -2287.203      -1899.0075    
   2327000   307.46286      1478.3978     -2269.5508     -1872.4839    
   2327500   306.1865       1540.9378     -2327.494      -1931.9909    
   2328000   308.08395      826.52152     -2349.4306     -1951.5974    
   2328500   290.38873      106.23775     -2366.2794     -1991.2349    
   2329000   305.82044      1299.416      -2334.9221     -1939.9814    
   2329500   312.95341      1107.7599     -2332.6237     -1928.4722    
   2330000   294.15883      1577.7744     -2288.1919     -1908.3528    
   2330500   295.77278     -406.47546     -2302.9908     -1921.1001    
   2331000   319.49944      697.37874     -2353.8601     -1941.2868    
   2331500   314.45387      659.59526     -2294.5638     -1888.5245    
   2332000   300.91589     -162.14025     -2281.7348     -1893.136     
   2332500   278.85978      1023.9665     -2292.499      -1932.3032    
   2333000   289.65944      364.01913     -2294.5363     -1920.4664    
   2333500   289.34707      899.56353     -2335.9277     -1962.2457    
   2334000   291.34098      1679.4088     -2325.7483     -1949.5051    
   2334500   321.35166      1082.4209     -2333.9484     -1918.93      
   2335000   296.3272       2007.3534     -2334.774      -1952.0194    
   2335500   293.0551      -62.401443     -2347.7321     -1969.3473    
   2336000   315.19546      1172.4122     -2339.3489     -1932.2402    
   2336500   293.062        1544.4953     -2302.7144     -1924.2135    
   2337000   294.30494      1968.3453     -2277.8697     -1897.8006    
   2337500   281.38682      1041.4104     -2305.3508     -1941.9762    
   2338000   286.65793     -459.77285     -2318.1004     -1947.8304    
   2338500   303.07906      1729.2832     -2279.1545     -1887.7773    
   2339000   300.90052      2042.6791     -2307.6046     -1919.0626    
   2339500   270.80252      399.02543     -2287.819      -1938.0365    
   2340000   294.93582      397.04729     -2308.0895     -1927.1821    
   2340500   318.72684      180.33275     -2288.7639     -1877.1818    
   2341000   310.64119      1469.9555     -2305.6135     -1904.439     
   2341500   303.12805      941.68358     -2325.1577     -1933.7175    
   2342000   290.44178      2052.2784     -2317.7845     -1942.7331    
   2342500   317.63266     -314.13566     -2302.3917     -1892.226     
   2343000   279.3495       1888.0069     -2296.1028     -1935.4362    
   2343500   297.45883      392.30025     -2310.213      -1926.1736    
   2344000   304.25613      2579.8655     -2297.2383     -1904.6784    
   2344500   321.71945      2547.5409     -2290.4071     -1875.189     
   2345000   289.40361      874.4723      -2301.3906     -1927.9006    
   2345500   286.35925      651.2797      -2304.0321     -1934.6079    
   2346000   311.08121      2130.994      -2287.9991     -1886.3619    
   2346500   295.45001      740.62842     -2311.2926     -1929.7337    
   2347000   288.85815      2520.0648     -2317.2523     -1944.1697    
   2347500   300.07723      299.07513     -2309.7601     -1922.1794    
   2348000   304.24799      2202.7167     -2276.6254     -1883.7822    
   2348500   309.36527      303.6622      -2316.8985     -1917.4077    
   2349000   309.77688      1309.2488     -2333.1811     -1933.1971    
   2349500   325.29167     -382.96836     -2340.0718     -1919.9678    
   2350000   305.86344      2526.9748     -2303.2986     -1908.3393    
   2350500   294.66819      1354.8582     -2329.3354     -1948.9934    
   2351000   292.14507      3305.4658     -2291.9755     -1914.744     
   2351500   292.50914      41.057866     -2276.6227     -1898.8534    
   2352000   308.76274      685.08151     -2331.3851     -1932.6578    
   2352500   313.03251     -261.65729     -2325.7687     -1921.5741    
   2353000   316.75981      1782.3613     -2280.7241     -1871.5935    
   2353500   281.63859      1125.6424     -2290.0774     -1926.3303    
   2354000   293.98773      1707.5612     -2316.6631     -1936.9249    
   2354500   310.54577      1023.048      -2315.5373     -1914.5167    
   2355000   302.12322      964.9841      -2311.3385     -1921.125     
   2355500   272.8746       1201.7123     -2313.6676     -1961.305     
   2356000   293.19667     -835.03327     -2313.2005     -1934.6102    
   2356500   298.81472     -259.23106     -2316.9685     -1931.0221    
   2357000   296.35724      2487.1083     -2297.9225     -1915.2805    
   2357500   310.81327      1108.0685     -2313.116      -1911.697     
   2358000   289.57921      490.15924     -2334.2721     -1960.3253    
   2358500   303.9605       199.12956     -2331.5697     -1939.1085    
   2359000   295.67628      1357.0975     -2293.2854     -1911.8264    
   2359500   295.01442     -128.28378     -2337.3801     -1956.7747    
   2360000   312.90256      966.18046     -2327.0731     -1922.9917    
   2360500   314.2141       1617.3913     -2294.9206     -1889.1017    
   2361000   297.38798      326.82973     -2311.1171     -1927.0268    
   2361500   303.93541      1459.3855     -2307.6094     -1914.9868    
   2362000   286.26538      1097.6664     -2345.539      -1975.7573    
   2362500   292.08752      925.58866     -2324.8891     -1947.5815    
   2363000   310.37552      909.04357     -2345.0907     -1944.1979    
   2363500   297.89583      1309.7443     -2360.0268     -1975.264     
   2364000   313.27096     -836.44893     -2341.0703     -1936.4793    
   2364500   303.04054      1466.7834     -2303.3482     -1911.8827    
   2365000   285.07927     -264.4227      -2300.453      -1932.2745    
   2365500   297.63119      1377.6751     -2324.8783     -1940.5636    
   2366000   315.41212      1571.8391     -2308.3495     -1901.1061    
   2366500   284.47979      902.73315     -2311.5085     -1944.1351    
   2367000   293.01636      1248.4523     -2304.9476     -1926.5333    
   2367500   311.24365      496.46065     -2284.9138     -1882.9302    
   2368000   291.54005      613.97804     -2318.7952     -1942.1866    
   2368500   302.14199      1187.3993     -2328.8817     -1938.667     
   2369000   312.27236      2377.4499     -2315.704      -1912.4834    
   2369500   308.73488      887.33751     -2281.5369     -1882.7161    
   2370000   295.44691      1063.5263     -2305.9645     -1924.5153    
   2370500   312.60443      1890.4868     -2338.2197     -1934.969     
   2371000   305.41283     -136.24854     -2292.1391     -1897.9637    
   2371500   307.83589      1952.854      -2302.8886     -1905.507     
   2372000   293.42331      1183.1001     -2314.9038     -1935.96      
   2372500   300.56185      997.51445     -2350.3327     -1962.2892    
   2373000   284.78         1299.5792     -2343.5127     -1975.9641    
   2373500   290.53939      2211.2315     -2293.511      -1918.6815    
   2374000   298.0925       1400.6641     -2312.386      -1927.4565    
   2374500   298.38828      92.760945     -2354.3073     -1969.0453    
   2375000   320.1293       3260.263      -2338.5196     -1925.3374    
   2375500   320.79837      1445.8326     -2343.7656     -1929.8201    
   2376000   288.00043      1178.002      -2345.1043     -1973.5275    
   2376500   297.87742     -905.87575     -2347.5026     -1963.1746    
   2377000   305.0348       584.80033     -2319.8544     -1926.0691    
   2377500   306.07666      268.00974     -2304.6943     -1909.5328    
   2378000   300.82827      165.10562     -2302.2757     -1913.8311    
   2378500   299.8955       244.58001     -2343.4217     -1956.5387    
   2379000   303.44         510.90837     -2297.6807     -1906.2196    
   2379500   304.83156      681.04489     -2306.0853     -1912.587     
   2380000   295.54349      1350.8211     -2328.5697     -1947.0025    
   2380500   277.96494      528.97607     -2356.2883     -1997.294     
   2381000   305.13725      1004.5335     -2345.5333     -1951.574     
   2381500   288.66799      1987.7109     -2289.1786     -1916.3524    
   2382000   299.85081      1526.0438     -2272.8204     -1885.6776    
   2382500   293.07893      569.41378     -2307.3545     -1928.9477    
   2383000   290.27896      1251.2318     -2320.6541     -1945.8251    
   2383500   324.55169      571.74425     -2316.2106     -1897.1827    
   2384000   306.46217      888.33446     -2279.2897     -1883.496     
   2384500   283.85381      2816.0607     -2308.2879     -1941.6257    
   2385000   296.93987      1327.1745     -2296.2105     -1912.696     
   2385500   309.27845      490.55219     -2254.2657     -1854.7861    
   2386000   291.17436     -0.37370568    -2285.0694     -1908.9852    
   2386500   291.24498      1535.9572     -2274.9171     -1898.8682    
   2387000   310.13108      810.82925     -2333.3219     -1932.7228    
   2387500   293.04766     -160.35809     -2345.5641     -1967.1915    
   2388000   295.02229      1071.8201     -2305.0277     -1924.0921    
   2388500   298.30945      1323.462      -2280.1899     -1894.9929    
   2389000   310.30006      2248.0369     -2279.9059     -1879.172     
   2389500   296.5661       627.31202     -2317.6815     -1934.7301    
   2390000   305.50438      13.568129     -2324.7648     -1930.3386    
   2390500   321.07828      1903.0866     -2309.8227     -1895.532     
   2391000   292.36041      2740.5693     -2325.6443     -1948.423     
   2391500   292.52008      295.76621     -2325.5702     -1948.2321    
   2392000   325.20458      900.05034     -2307.6918     -1887.8218    
   2392500   316.74746      1615.1816     -2316.4949     -1907.601     
   2393000   267.09021      1617.2606     -2276.1105     -1931.2058    
   2393500   303.76264      380.57463     -2285.597      -1893.3328    
   2394000   305.97981      1093.2069     -2283.0939     -1887.9792    
   2394500   287.95357      256.22998     -2294.4938     -1922.6177    
   2395000   311.80902      959.56406     -2312.1821     -1909.5452    
   2395500   292.76914      1074.0348     -2339.0383     -1961.007     
   2396000   299.13856      638.82528     -2332.89       -1946.6141    
   2396500   323.00552      1121.1704     -2320.7384     -1903.707     
   2397000   291.69202      1409.714      -2317.7702     -1941.2165    
   2397500   307.844        74.258437     -2324.7989     -1927.6626    
   2398000   311.15406     -12.814424     -2312.1314     -1910.3426    
   2398500   279.39725      643.29785     -2312.027      -1951.1823    
   2399000   303.68417      507.93834     -2311.6642     -1919.7225    
   2399500   301.26861      857.56509     -2323.7226     -1935.0338    
   2400000   284.55165      905.06075     -2361.1379     -1994.021     
   2400500   294.87134     -192.91024     -2335.3372     -1954.6056    
   2401000   288.1667       1834.4296     -2292.5541     -1920.4549    
   2401500   310.1003       967.68795     -2279.418      -1878.9169    
   2402000   308.90859     -201.68034     -2307.0854     -1908.1622    
   2402500   277.06883      677.66059     -2291.6234     -1933.8048    
   2403000   304.78465      551.65958     -2288.36       -1894.8209    
   2403500   307.71039      1170.2927     -2319.6682     -1922.3637    
   2404000   284.86929     -826.84808     -2320.6081     -1952.7065    
   2404500   297.6951       1009.1709     -2290.9064     -1906.4579    
   2405000   303.65928     -815.17446     -2336.78       -1944.7331    
   2405500   303.848        2903.6648     -2344.8768     -1952.5638    
   2406000   314.111        1753.6571     -2323.5428     -1918.2768    
   2406500   303.70696     -109.08464     -2361.8755     -1969.8276    
   2407000   284.4997      -128.71073     -2325.8311     -1958.5081    
   2407500   298.44985      2478.9708     -2317.7969     -1932.3332    
   2408000   311.15891      1690.7209     -2293.0403     -1891.1903    
   2408500   309.84262      930.34325     -2308.6946     -1908.5666    
   2409000   302.35902     -608.57242     -2335.3747     -1944.879     
   2409500   296.63702      931.37979     -2286.2189     -1903.1165    
   2410000   318.46621      1511.7386     -2318.3456     -1907.0162    
   2410500   290.63327      1193.5383     -2321.1604     -1945.7761    
   2411000   307.28168      1052.8584     -2297.8322     -1901.0333    
   2411500   309.61227      44.93954      -2315.6205     -1915.752     
   2412000   300.29553      398.14542     -2307.2231     -1919.4851    
   2412500   283.74197      282.04587     -2314.2124     -1947.7579    
   2413000   296.3063       1352.5659     -2323.9204     -1941.2718    
   2413500   299.87495      167.06509     -2298.0464     -1910.7563    
   2414000   271.32177      1376.2723     -2285.8899     -1935.4291    
   2414500   312.33706      1517.6341     -2310.1549     -1906.8009    
   2415000   321.75776      295.32417     -2325.3255     -1909.823     
   2415500   295.13609      1756.232      -2325.0339     -1944.0525    
   2416000   307.23683      2014.2215     -2307.4623     -1910.6565    
   2416500   311.40178      1885.1013     -2328.1769     -1925.9785    
   2417000   296.49409      144.90905     -2333.0421     -1950.1169    
   2417500   290.95509      1800.0189     -2310.0954     -1934.3642    
   2418000   324.02829      488.0301      -2271.9811     -1853.4858    
   2418500   303.82533      946.56257     -2293.6467     -1901.2235    
   2419000   287.72694      1815.8744     -2309.2247     -1937.7499    
   2419500   297.58703      1159.8128     -2325.5832     -1941.3933    
   2420000   315.53753      1801.4733     -2294.7736     -1887.4504    
   2420500   309.71567     -29.070615     -2338.8602     -1938.8756    
   2421000   292.54128     -362.98742     -2322.9607     -1945.372     
   2421500   304.7644       1249.2878     -2288.9527     -1895.3578    
   2422000   287.70831      225.33917     -2329.434      -1957.9246    
   2422500   280.63915      774.75944     -2306.1626     -1943.9642    
   2423000   293.31592      410.84598     -2280.5048     -1901.9907    
   2423500   288.93007     -998.88849     -2303.3602     -1930.2581    
   2424000   280.27909      1934.9453     -2333.8317     -1971.8332    
   2424500   298.63144     -87.35609      -2316.4368     -1930.7598    
   2425000   301.36754      892.56888     -2289.8171     -1900.7259    
   2425500   305.70548      1829.1801     -2339.9104     -1945.5489    
   2426000   290.3538       1428.8026     -2327.2314     -1952.3456    
   2426500   303.98301      1302.0659     -2303.7841     -1911.2351    
   2427000   295.70044      2010.5679     -2312.4598     -1930.6916    
   2427500   281.24656      729.21622     -2349.6408     -1986.5835    
   2428000   282.24861     -165.78479     -2299.7651     -1935.2663    
   2428500   299.68415      1400.2506     -2316.1628     -1929.1588    
   2429000   284.55162      1426.8958     -2344.8332     -1977.7225    
   2429500   290.22379      1542.3443     -2314.5569     -1939.9174    
   2430000   319.63191      2661.8871     -2334.7856     -1922.1417    
   2430500   288.36337      1159.4342     -2332.4391     -1960.1238    
   2431000   280.80331      245.51118     -2322.5145     -1960.024     
   2431500   303.05768     -215.16221     -2301.4841     -1910.5251    
   2432000   294.33269      1592.1828     -2284.9372     -1905.0356    
   2432500   281.94552      690.29917     -2317.4647     -1953.3741    
   2433000   307.15553      929.97997     -2300.578      -1904.0556    
   2433500   311.42674      1623.8969     -2305.5624     -1903.5462    
   2434000   300.82421      717.63902     -2341.3884     -1952.9975    
   2434500   303.7011       1499.4473     -2329.6534     -1937.3964    
   2435000   315.62873      1301.0462     -2303.9123     -1896.2927    
   2435500   317.14016      935.97984     -2277.1027     -1867.4547    
   2436000   309.04854      839.9611      -2318.3592     -1919.2731    
   2436500   294.04728      598.38438     -2309.2369     -1929.541     
   2437000   301.0258       1581.9157     -2314.8679     -1926.1143    
   2437500   310.65212     -83.494625     -2308.1399     -1907.0171    
   2438000   294.09841      1237.468      -2339.0841     -1959.3397    
   2438500   299.19416      329.35455     -2314.2101     -1927.8967    
   2439000   311.24871      434.19323     -2312.9333     -1910.939     
   2439500   286.59077     -144.74786     -2319.8649     -1949.7724    
   2440000   295.39207      446.57654     -2342.2265     -1960.8553    
   2440500   282.84385      1339.0746     -2294.1975     -1928.9956    
   2441000   290.08465     -308.28075     -2310.0066     -1935.4453    
   2441500   315.85569      1123.2467     -2307.2558     -1899.3116    
   2442000   296.47196     -186.00703     -2318.29       -1935.3561    
   2442500   293.64466     -180.43894     -2310.0469     -1930.844     
   2443000   317.99341      855.5735      -2308.1136     -1897.4447    
   2443500   303.61356      1925.0711     -2324.8788     -1932.859     
   2444000   296.14333      1135.2685     -2334.5041     -1952.0383    
   2444500   311.71355      1168.2105     -2299.4885     -1896.9407    
   2445000   299.08245      1403.4077     -2261.7602     -1875.4979    
   2445500   313.78647      680.47565     -2318.9425     -1913.7727    
   2446000   283.44606      950.30953     -2312.0498     -1945.9809    
   2446500   309.37534      1297.6693     -2299.1043     -1899.6374    
   2447000   309.05656      1229.1773     -2298.7911     -1899.655     
   2447500   295.15749      865.03832     -2329.0609     -1947.8737    
   2448000   287.39036      353.71759     -2306.4301     -1935.1717    
   2448500   279.06864      1176.2928     -2289.6963     -1929.2314    
   2449000   291.79155      1160.9947     -2301.8729     -1925.112     
   2449500   318.14634      1364.64       -2294.0393     -1883.2414    
   2450000   295.60233      2317.4915     -2313.3945     -1931.6223    
   2450500   282.70986      1641.4539     -2314.2349     -1949.151     
   2451000   288.5859       2459.4517     -2292.5087     -1919.8195    
   2451500   307.27299      1630.2453     -2288.4259     -1891.6625    
   2452000   305.76815      339.10163     -2331.9437     -1937.0363    
   2452500   290.97945      2655.3242     -2296.3949     -1920.5       
   2453000   303.7694      -20.149093     -2261.0896     -1868.7423    
   2453500   316.31416      944.80248     -2317.7562     -1909.2881    
   2454000   301.97756      1878.1873     -2330.7367     -1940.8095    
   2454500   291.02111      106.99922     -2310.7173     -1934.9066    
   2455000   304.22031      1713.3799     -2296.0054     -1903.2026    
   2455500   305.39218      310.3809      -2344.6629     -1950.3862    
   2456000   289.52031      2741.2662     -2307.624      -1933.8722    
   2456500   313.95713      2556.5223     -2311.3916     -1906.05      
   2457000   308.15094     -19.222564     -2326.7003     -1928.7562    
   2457500   293.43387      370.49998     -2343.5523     -1964.5731    
   2458000   310.45004      577.226       -2324.903      -1924.0826    
   2458500   308.86107      884.96679     -2317.9176     -1918.9408    
   2459000   268.47274      177.02933     -2312.0878     -1965.2993    
   2459500   320.48939      1637.7821     -2333.8585     -1920.0085    
   2460000   307.20826      1209.6744     -2320.9353     -1924.1221    
   2460500   271.19731      356.27574     -2310.4083     -1960.053     
   2461000   290.03697      1459.7956     -2302.1715     -1927.5643    
   2461500   299.79772      1834.9059     -2320.9729     -1933.7005    
   2462000   317.47332      2044.9372     -2316.5564     -1906.4863    
   2462500   296.11563      460.46031     -2304.5689     -1922.1432    
   2463000   308.08153      1740.6162     -2343.9141     -1945.9972    
   2463500   307.35417      399.91648     -2305.0969     -1908.1552    
   2464000   293.82725      1297.3794     -2288.7663     -1909.2453    
   2464500   311.70508     -377.30117     -2321.6611     -1919.1955    
   2465000   276.57764      313.75492     -2306.1892     -1949.0469    
   2465500   303.2298       786.47864     -2289.9751     -1898.7348    
   2466000   309.05529      1958.5028     -2311.9672     -1912.8289    
   2466500   275.94359      1163.9467     -2316.2809     -1960.3169    
   2467000   302.53309      477.38781     -2318.0244     -1927.7944    
   2467500   331.06868      371.38153     -2320.0483     -1893.2847    
   2468000   291.03463      701.36115     -2314.4191     -1939.3944    
   2468500   306.98688      993.10791     -2346.4943     -1950.5434    
   2469000   282.34869     -54.429787     -2299.5665     -1935.0554    
   2469500   292.8685       1452.2706     -2311.7127     -1933.4436    
   2470000   292.57961      933.47147     -2317.6394     -1939.8157    
   2470500   306.29374      1531.3033     -2315.132      -1919.6484    
   2471000   302.23462      889.78059     -2268.473      -1878.598     
   2471500   291.97234      1466.0922     -2283.002      -1905.8278    
   2472000   288.33223     -490.38293     -2306.9413     -1934.5192    
   2472500   294.12055      223.43119     -2369.4583     -1989.8949    
   2473000   318.23708      185.03101     -2356.8947     -1946.1522    
   2473500   305.59881      1237.9865     -2315.8851     -1921.612     
   2474000   303.48538      266.65533     -2310.053      -1918.3122    
   2474500   286.21904      822.65282     -2327.7568     -1958.2701    
   2475000   300.27151      138.79181     -2295.985      -1908.171     
   2475500   306.17707      1578.8259     -2324.1414     -1928.7916    
   2476000   291.09649      1099.6467     -2358.6163     -1982.1757    
   2476500   302.9114       2330.8645     -2364.6068     -1973.3922    
   2477000   317.4427       1516.3341     -2340.8695     -1930.9478    
   2477500   308.23134      1311.2802     -2298.9681     -1900.9757    
   2478000   276.47302      2626.3855     -2297.1184     -1940.1173    
   2478500   310.85253     -143.85675     -2363.2563     -1961.8315    
   2479000   297.95466      666.90787     -2290.4946     -1905.6683    
   2479500   296.94465      2217.9851     -2309.0917     -1925.6592    
   2480000   304.50753      574.29732     -2350.5117     -1957.5032    
   2480500   295.01683      671.54377     -2314.7542     -1933.7427    
   2481000   315.66984      728.30488     -2307.3558     -1899.6647    
   2481500   294.24832      1878.9931     -2342.6079     -1962.5792    
   2482000   286.58271     -52.033706     -2305.6243     -1935.485     
   2482500   310.56562     -424.48314     -2314.0696     -1912.98      
   2483000   319.9109       1446.4994     -2346.5307     -1933.3746    
   2483500   286.9555      -74.728988     -2339.6815     -1969.1731    
   2484000   303.22998      1495.3222     -2314.4581     -1922.8557    
   2484500   303.49832      646.61392     -2316.5658     -1924.6702    
   2485000   300.42077      1160.8051     -2366.4926     -1978.5179    
   2485500   289.60716      2313.4767     -2333.4198     -1959.332     
   2486000   304.00516      704.55655     -2326.3033     -1933.7858    
   2486500   313.93606      1654.6195     -2283.9066     -1878.3955    
   2487000   300.2043       1078.3951     -2292.7976     -1905.0632    
   2487500   305.91376      896.33566     -2314.405      -1919.2696    
   2488000   294.06324      1017.7918     -2315.586      -1935.7223    
   2488500   305.36607      584.34485     -2337.7087     -1943.2948    
   2489000   290.26078      651.75827     -2265.4956     -1890.6336    
   2489500   299.34114      455.6276      -2309.7363     -1923.2646    
   2490000   309.37834     -428.71885     -2341.3632     -1942.0597    
   2490500   303.67141      1644.7314     -2297.9845     -1905.8978    
   2491000   304.60062      287.42583     -2297.0785     -1903.8342    
   2491500   278.38272     -555.85906     -2305.9798     -1946.668     
   2492000   314.2724      -50.219466     -2310.883      -1905.0381    
   2492500   318.65666      298.7882      -2270.8279     -1859.276     
   2493000   327.49176      778.05699     -2332.0501     -1909.1835    
   2493500   286.36275      110.28061     -2301.8596     -1932.0163    
   2494000   277.71235      852.98194     -2322.0185     -1963.2887    
   2494500   295.47893      688.18563     -2325.0548     -1943.44      
   2495000   292.77636      764.70555     -2292.2235     -1913.9763    
   2495500   295.82858      148.43194     -2296.1131     -1914.0553    
   2496000   301.39921      736.28439     -2318.0076     -1928.8214    
   2496500   280.43027      517.57279     -2312.9648     -1950.7715    
   2497000   297.33089      2099.1343     -2301.242      -1917.159     
   2497500   307.91457      463.73024     -2305.9669     -1908.2729    
   2498000   289.37386      710.06608     -2338.351      -1964.6863    
   2498500   301.99362      1034.1977     -2322.5376     -1932.539     
   2499000   306.14752      828.16755     -2316.8028     -1921.4838    
   2499500   304.70368      1154.7129     -2320.7331     -1927.2076    
   2500000   301.82923      1695.6162     -2317.4458     -1927.6858    
Loop time of 4065.1 on 16 procs for 2500000 steps with 650 atoms

Performance: 106.271 ns/day, 0.226 hours/ns, 614.992 timesteps/s
89.4% CPU use with 16 MPI tasks x no OpenMP threads

MPI task timing breakdown:
Section |  min time  |  avg time  |  max time  |%varavg| %total
---------------------------------------------------------------
Pair    | 1042.8     | 1168.3     | 1315.3     | 231.2 | 28.74
Bond    | 1.2713     | 1.3996     | 1.5316     |   6.2 |  0.03
Kspace  | 1103.6     | 1247.5     | 1373.4     | 222.1 | 30.69
Neigh   | 118.99     | 119.71     | 120.38     |   4.9 |  2.94
Comm    | 629.13     | 631.93     | 633.93     |   5.3 | 15.55
Output  | 2.5863     | 2.5981     | 2.655      |   1.0 |  0.06
Modify  | 840.68     | 844.05     | 847.34     |   7.9 | 20.76
Other   |            | 49.67      |            |       |  1.22

Nlocal:         40.625 ave          48 max          31 min
Histogram: 1 0 1 1 4 2 2 3 0 2
Nghost:        3258.69 ave        3297 max        3194 min
Histogram: 1 0 2 1 1 1 2 3 2 3
Neighs:        15439.9 ave       19230 max       12287 min
Histogram: 3 0 1 0 5 3 3 0 0 1

Total # of neighbors = 247039
Ave neighs/atom = 380.06
Ave special neighs/atom = 1.9938462
Neighbor list builds = 198642
Dangerous builds = 22095

write_data  end.data                                   # write a lammps.data file with the final configuration, can be used to start new simulations
System init for write_data ...
PPPM initialization ...
  using 12-bit tables for long-range coulomb (../kspace.cpp:342)
  G vector (1/distance) = 0.30520329
  grid = 16 16 16
  stencil order = 5
  estimated absolute RMS force accuracy = 0.0030333252
  estimated relative force accuracy = 9.1347686e-06
  using double precision KISS FFT
  3d grid and FFT values/proc = 2475 256
Generated 5 of 6 mixed pair_coeff terms from arithmetic mixing rule
WARNING: Not all mixed pair coeffs generated from mixing. Use write_data with 'pair ij' option to store all pair coeffs. (../write_data.cpp:309)
Total wall time: 1:07:45
