LAMMPS (23 Jun 2022)
#LAMMPS init file for NaCl dissociation in water
# ------------------------------- Initialization Section --------------------
units        real                            # A, fs, Kcal/mol
atom_style   full                            # Accepts positions, masses, bonds, angles, charges
pair_style lj/charmm/coul/long 9.0 10.0      # Classical LJ style potential + coulomb interaction with two cutoffs
bond_style  harmonic                         # Uses an harmonic potential around an equilibrium value for bonds
angle_style harmonic                         # Uses an harmonic potential around an equilibrium value for angles

# ------------------------------- Atom Definition Section -------------------
read_data    "../NaCl_216wat.data"           # Read from file the positions, masses, velocities, bonds and charges of the atoms
Reading data file ...
  orthogonal box = (0.12622049 0.12622049 0.12622049) to (18.47378 18.47378 18.47378)
  2 by 2 by 4 MPI processor grid
  reading atoms ...
  650 atoms
  reading velocities ...
  650 velocities
  scanning bonds ...
  2 = max bonds/atom
  scanning angles ...
  1 = max angles/atom
  reading bonds ...
  432 bonds
  reading angles ...
  216 angles
Finding 1-2 1-3 1-4 neighbors ...
  special bond factors lj:    0        0        0       
  special bond factors coul:  0        0        0       
     2 = max # of 1-2 neighbors
     1 = max # of 1-3 neighbors
     1 = max # of 1-4 neighbors
     2 = max # of special neighbors
  special bonds CPU = 0.001 seconds
  read_data CPU = 0.025 seconds

group wat type  1  2                         # Define a group for the water molecules (types 1=O, 2=H)
648 atoms in group wat

# ------------------------------- Settings Section --------------------------

### TIP3P Potential Parameters --> Water ###
set type 1 charge -0.834                     # Set charge for O
Setting atom values ...
  216 settings made for charge
set type 2 charge  0.417                     # Set charge for H
Setting atom values ...
  432 settings made for charge
pair_coeff 1 1 0.1521 3.1507                 # Set O interaction parameters
pair_coeff 2 2 0.0460 0.4000                 # Set H interaction parameters
pair_coeff 1 2 0.0836 1.7753                 # Set O-H interaction parameters
bond_coeff  1 450 0.9572                     # Set O-H bond parameters
angle_coeff 1 55 104.52                      # Set H-O-H angle parameters
kspace_style pppm 1.0e-5                     # final npt relaxation
pair_coeff 3 3  0.3526418 2.1595384928       # Set Na interaction parameters
pair_coeff 4 4   0.0127850  4.8304528498     # Set Cl interaction parameter

# ------------------------------- Run Section -------------------------------

# The dump command is used to print output, here: atom-id, molecule-id, lammps-type, xyz coord, image-xyz (for PBC box)
dump         1 all custom 500 traj_unbiased.lammpstrj id mol type x y z ix iy iz

timestep     2.0                                       # fs

# The fix command is used to act on your system
fix          fxnvt all nvt temp 300.0 300.0 500.0      # 300K Nose-Hoover thermostat to sample the NVT canonical ensemble, tau = 500*dt
fix pl all plumed plumedfile plumed.dat outfile p.log  # Make LAMMPS aware that we want to use PLUMED! Load the plumed.dat input file
fix fRattleWat wat rattle 0.0001 10 0 b 1 a 1        # Fix bonds and angles of water molecules, allow to use longer dt and it's fine for us
       0 = # of size 2 clusters
       0 = # of size 3 clusters
       0 = # of size 4 clusters
     216 = # of frozen angles
  find clusters CPU = 0.000 seconds

# The thermo command computes the thermodynamic quantities we may be interested in, can specify which ones with thermo_style
thermo         500                                       # compute and print on screen every 500dt
thermo_style   custom step temp press epair etotal

run            2500000                                    # run the simualtion for N steps
PPPM initialization ...
  using 12-bit tables for long-range coulomb (../kspace.cpp:342)
  G vector (1/distance) = 0.30520329
  grid = 16 16 16
  stencil order = 5
  estimated absolute RMS force accuracy = 0.0030333252
  estimated relative force accuracy = 9.1347686e-06
  using double precision KISS FFT
  3d grid and FFT values/proc = 2475 256
Generated 5 of 6 mixed pair_coeff terms from arithmetic mixing rule
Neighbor list info ...
  update every 1 steps, delay 10 steps, check yes
  max neighbors/atom: 2000, page size: 100000
  master list distance cutoff = 12
  ghost atom cutoff = 12
  binsize = 6, bins = 4 4 4
  1 neighbor lists, perpetual/occasional/extra = 1 0 0
  (1) pair lj/charmm/coul/long, perpetual
      attributes: half, newton on
      pair build: half/bin/newton
      stencil: half/bin/3d
      bin: standard
Per MPI rank memory allocation (min/avg/max) = 9.608 | 9.611 | 9.613 Mbytes
   Step          Temp          Press          E_pair         TotEng    
         0   306.42593      3122.9113     -2545.2648     -2149.7637    
       500   307.57755      1507.9252     -2331.4431     -1934.4556    
      1000   284.12842      2121.0159     -2319.7742     -1953.0523    
      1500   297.9082       1291.6881     -2327.6611     -1943.1538    
      2000   296.1198       757.73477     -2272.768      -1890.569     
      2500   318.30799      2138.5105     -2323.5547     -1912.7175    
      3000   304.66219      136.80317     -2331.6925     -1938.4678    
      3500   320.89066      618.42344     -2329.8112     -1915.6406    
      4000   319.47233      1280.0152     -2299.8469     -1887.5069    
      4500   318.06991     -1105.188      -2319.7048     -1909.1749    
      5000   286.61524      1448.9164     -2301.4799     -1931.5483    
      5500   336.0964       1036.1456     -2314.5115     -1880.715     
      6000   308.9071       799.88642     -2327.1939     -1928.4904    
      6500   297.55337      546.16465     -2338.9239     -1954.8745    
      7000   301.40026      362.07705     -2295.3342     -1906.3197    
      7500   319.49631      1594.154      -2311.2337     -1898.8627    
      8000   286.80227      192.3782      -2300.7557     -1930.5827    
      8500   289.63636      1893.8016     -2309.0273     -1935.1963    
      9000   291.0191       1755.2111     -2290.1427     -1914.527     
      9500   324.32534      843.16266     -2271.2338     -1852.63      
     10000   308.89895      354.92284     -2309.4804     -1910.7874    
     10500   299.48556      1592.068      -2320.9377     -1934.3945    
     11000   279.11676      874.14172     -2334.6137     -1974.3603    
     11500   304.17879      1362.0845     -2301.7113     -1909.1106    
     12000   297.29497      1199.4784     -2295.8676     -1912.1517    
     12500   301.32996      1685.3518     -2355.8237     -1966.8999    
     13000   299.12089      350.80853     -2335.3466     -1949.2741    
     13500   295.22741      665.88184     -2313.1383     -1932.091     
     14000   328.38164      3053.5732     -2305.4621     -1881.623     
     14500   308.9388       1577.7859     -2314.292      -1915.5475    
     15000   291.45241      905.2681      -2321.7286     -1945.5537    
     15500   324.08032      1470.2106     -2310.9927     -1892.7053    
     16000   313.44918      759.96641     -2306.4099     -1901.8439    
     16500   313.12443      2484.2184     -2327.5707     -1923.4239    
     17000   289.86759      2385.8113     -2310.5987     -1936.4693    
     17500   300.95739      432.90656     -2328.8677     -1940.4248    
     18000   322.36262      143.697       -2306.6593     -1890.5888    
     18500   292.5828       2006.9582     -2316.1951     -1938.5612    
     19000   295.53327      1110.207      -2325.1787     -1943.7367    
     19500   279.37621      2840.3979     -2284.21       -1923.6218    
     20000   313.8023       2223.3617     -2301.1379     -1896.1162    
     20500   296.69271      1401.3655     -2314.4096     -1931.4711    
     21000   299.68461      1617.0324     -2329.7499     -1942.9498    
     21500   302.8942       1391.3351     -2308.7008     -1917.7581    
     22000   315.04949     -18.001827     -2307.7818     -1901.1504    
     22500   283.80302      183.51925     -2311.3403     -1945.0384    
     23000   304.33325      1448.7823     -2328.1704     -1935.3703    
     23500   324.85302      2173.2451     -2322.7024     -1903.4176    
     24000   295.00441      38.413029     -2303.4005     -1922.641     
     24500   291.83256      39.331832     -2321.6439     -1944.9784    
     25000   297.49386      566.83453     -2341.4064     -1957.4339    
     25500   288.62829      475.50282     -2275.6977     -1903.1679    
     26000   293.50925      504.70495     -2304.7626     -1925.9329    
     26500   295.94175      793.48626     -2327.1352     -1945.1659    
     27000   309.41583     -609.91538     -2313.2334     -1913.8733    
     27500   301.77761      1169.4232     -2353.6844     -1964.1829    
     28000   303.10676      990.54346     -2330.3874     -1939.1703    
     28500   300.39629     -86.998858     -2298.3843     -1910.6656    
     29000   280.19236     -1059.6653     -2323.6127     -1961.971     
     29500   299.84567      1165.3479     -2318.7919     -1931.7838    
     30000   313.28656      209.76901     -2322.1454     -1917.7893    
     30500   287.65013      911.00152     -2330.5293     -1959.2619    
     31000   303.76007     -650.82708     -2309.2136     -1917.1533    
     31500   305.7062       2034.8594     -2301.5181     -1906.9459    
     32000   292.14118      1808.6905     -2323.859      -1946.795     
     32500   287.05665      1372.8298     -2316.2673     -1945.766     
     33000   319.40147      902.38895     -2312.583      -1900.3345    
     33500   290.20301      1689.7683     -2308.0018     -1933.4395    
     34000   301.70473      517.82004     -2335.5382     -1946.1307    
     34500   303.85898      430.04416     -2301.9994     -1909.8114    
     35000   291.81042     -154.99314     -2333.4548     -1956.8178    
     35500   306.36565     -5.9158458     -2339.4912     -1944.0679    
     36000   296.03784      523.55055     -2308.7792     -1926.6859    
     36500   327.95782      1678.2015     -2291.376      -1868.0839    
     37000   313.59259      1705.2178     -2312.1365     -1907.3854    
     37500   312.1408       486.47961     -2327.9004     -1925.0232    
     38000   293.18402      164.593       -2351.4212     -1973.0113    
     38500   303.5777       33.391113     -2351.5868     -1959.7618    
     39000   296.10996      517.5041      -2307.8351     -1925.6487    
     39500   301.75293      1810.3256     -2304.8207     -1915.351     
     40000   272.81538     -495.49016     -2321.0118     -1968.8915    
     40500   305.31419      1440.2583     -2326.221      -1932.1548    
     41000   287.58555      1819.4156     -2291.487      -1920.303     
     41500   294.83223     -1078.6396     -2334.8533     -1954.3161    
     42000   293.93773      1688.4568     -2317.8442     -1938.4615    
     42500   303.538        992.09309     -2304.5741     -1912.8004    
     43000   305.40763     -129.94953     -2338.6901     -1944.5032    
     43500   285.28177      137.74917     -2337.5696     -1969.359     
     44000   295.39318      2123.8932     -2319.1013     -1937.8401    
     44500   320.3933       1617.3677     -2284.6737     -1871.145     
     45000   301.71193      2815.9309     -2285.3024     -1895.8856    
     45500   293.53811      1482.8202     -2311.3665     -1932.4996    
     46000   285.85267      738.51439     -2301.5544     -1932.607     
     46500   295.48346      2195.2288     -2309.4823     -1928.1045    
     47000   299.68546      1299.7191     -2287.0169     -1900.2157    
     47500   314.20344      435.54007     -2303.3947     -1897.8552    
     48000   280.82234      154.29018     -2312.9298     -1950.475     
     48500   291.95258      202.52409     -2292.1703     -1915.3498    
     49000   307.12561      604.02137     -2294.8617     -1898.4575    
     49500   304.55034      642.95419     -2332.835      -1939.7547    
     50000   299.80224      97.855503     -2340.5437     -1953.5918    
     50500   311.31907      773.76943     -2319.0038     -1917.1871    
     51000   296.13098     -494.78777     -2282.2412     -1900.0276    
     51500   309.9386       1735.9458     -2299.5042     -1899.4693    
     52000   303.20119     -2.8308302     -2334.6499     -1943.311     
     52500   315.68943     -504.22574     -2327.8965     -1920.439     
     53000   326.79413      2106.4514     -2294.7348     -1872.9447    
     53500   298.54449      441.24214     -2320.2009     -1934.8723    
     54000   296.9087       1946.8473     -2310.811      -1927.5937    
     54500   314.81584      306.59524     -2295.3558     -1889.0259    
     55000   287.06117      193.35124     -2277.1426     -1906.6354    
     55500   292.12641      770.9102      -2320.1677     -1943.1229    
     56000   302.91955      271.42352     -2355.6032     -1964.6278    
     56500   324.61643      1292.772      -2329.4001     -1910.4207    
     57000   299.27012     -380.18786     -2327.4877     -1941.2225    
     57500   288.65116      227.78708     -2299.069      -1926.5096    
     58000   287.74047      1568.4752     -2271.2022     -1899.8182    
     58500   305.94045      1483.9808     -2322.667      -1927.7925    
     59000   291.33789      1579.9252     -2355.89       -1979.8629    
     59500   286.6884       1901.4497     -2322.2336     -1952.2076    
     60000   317.16052      1249.618      -2337.8899     -1928.5338    
     60500   294.35951      1320.1317     -2291.5576     -1911.6305    
     61000   317.53283      399.54899     -2302.1691     -1892.3324    
     61500   286.35531      554.99765     -2317.5628     -1947.9667    
     62000   300.7982       774.26399     -2322.1232     -1933.8858    
     62500   323.08153      344.51686     -2300.9482     -1883.9499    
     63000   292.23314      910.30612     -2315.8024     -1938.6198    
     63500   294.35221      1126.1674     -2322.3758     -1942.4581    
     64000   297.32831      2344.1862     -2317.614      -1933.8551    
     64500   307.59613      1861.2964     -2300.6616     -1903.6501    
     65000   295.8733       911.64733     -2297.6846     -1915.8037    
     65500   299.58228      1345.0951     -2338.8272     -1952.1591    
     66000   307.97564      1178.1209     -2298.1943     -1900.693     
     66500   310.71356     -522.05108     -2307.7205     -1906.6853    
     67000   297.55213      1070.779      -2328.6221     -1944.5743    
     67500   259.80839      1009.8434     -2286.0063     -1950.674     
     68000   302.22542     -846.04683     -2304.9933     -1914.9138    
     68500   315.64639      1584.177      -2325.6324     -1918.2305    
     69000   300.15806      1482.4355     -2338.5669     -1951.1557    
     69500   295.23908      406.41172     -2324.985      -1943.9226    
     70000   304.40238      1634.4522     -2289.0886     -1896.1993    
     70500   288.73561      820.19073     -2313.5221     -1940.8537    
     71000   305.1686       626.99441     -2342.2419     -1948.3636    
     71500   304.05276      3117.639      -2313.6102     -1921.1721    
     72000   304.17088      483.13874     -2304.3348     -1911.7442    
     72500   305.66794      2809.5732     -2277.8962     -1883.3734    
     73000   304.36891      840.33059     -2323.0314     -1930.1853    
     73500   294.65567      2880.1985     -2330.4318     -1950.1224    
     74000   294.38877      1010.1226     -2325.6265     -1945.6617    
     74500   287.98755     -692.24685     -2279.6846     -1907.9817    
     75000   282.31343      1714.7768     -2308.7452     -1944.3659    
     75500   289.37513      1636.872      -2333.1061     -1959.6123    
     76000   291.9187       1330.3521     -2302.9285     -1926.1517    
     76500   291.55754      513.30772     -2289.7657     -1913.455     
     77000   317.56396      640.70659     -2298.7357     -1888.8588    
     77500   307.22418     -118.93355     -2323.5413     -1927.0098    
     78000   317.98453      1801.2229     -2341.973      -1931.5534    
     78500   291.97048      441.9218      -2304.959      -1928.1154    
     79000   292.31296      639.49515     -2348.5858     -1971.3002    
     79500   310.53652      2210.9867     -2321.8819     -1921.0753    
     80000   306.55056      1052.6671     -2321.6237     -1925.9617    
     80500   281.96556      454.55221     -2335.4056     -1971.4752    
     81000   286.32456      1182.7115     -2321.1057     -1951.5492    
     81500   312.48369      1856.9873     -2315.2398     -1911.92      
     82000   293.82617      235.30014     -2327.8526     -1948.6139    
     82500   276.60893      219.91781     -2312.4151     -1955.3985    
     83000   293.70617      2255.4167     -2280.6958     -1901.612     
     83500   284.28181      451.29784     -2306.3852     -1939.4653    
     84000   297.46027      940.48402     -2323.3894     -1939.4602    
     84500   325.57585      1916.4681     -2295.3041     -1875.0863    
     85000   310.19651      2963.957      -2323.6479     -1923.2801    
     85500   275.66111      1249.3666     -2302.5337     -1946.7404    
     86000   310.04088     -153.84121     -2295.2979     -1895.131     
     86500   294.85722      1889.3121     -2295.4058     -1914.8363    
     87000   314.74323      1848.3218     -2336.8027     -1930.5665    
     87500   280.24657      1046.2895     -2334.1976     -1972.4859    
     88000   313.42572      308.52318     -2330.5766     -1926.0409    
     88500   306.94832      1134.7174     -2303.9371     -1907.7617    
     89000   311.36415      259.45063     -2285.6394     -1883.7646    
     89500   299.53273      1740.7242     -2319.129      -1932.5249    
     90000   311.40792      1167.1538     -2297.658      -1895.7266    
     90500   321.01709      718.17288     -2337.5023     -1923.1685    
     91000   315.79088      2238.0007     -2344.4022     -1936.8138    
     91500   316.08282     -152.48738     -2318.0168     -1910.0516    
     92000   292.33941     -0.47961612    -2331.9026     -1954.5829    
     92500   319.59026      2187.9793     -2326.2713     -1913.7791    
     93000   298.49951      2042.1332     -2296.905      -1911.6344    
     93500   298.97183      3202.359      -2313.7653     -1927.8851    
     94000   297.44667      621.74549     -2358.2423     -1974.3307    
     94500   290.71147      2134.1725     -2312.8562     -1937.6376    
     95000   320.5064       2073.4581     -2323.1788     -1909.5042    
     95500   292.87916      1122.0076     -2337.1571     -1959.1407    
     96000   275.67091      889.09007     -2326.0483     -1970.2424    
     96500   293.41785      1019.5064     -2328.5653     -1949.8536    
     97000   318.25855      1546.2564     -2308.2783     -1897.5049    
     97500   307.93711      2879.8748     -2294.9296     -1897.478     
     98000   308.24571      407.74851     -2316.7666     -1918.9167    
     98500   292.09912      1429.258      -2336.0631     -1959.0534    
     99000   296.60475      2052.6371     -2342.884      -1960.059     
     99500   308.03327      420.13862     -2321.3769     -1923.8012    
    100000   291.1882       1529.9968     -2296.4696     -1920.6357    
    100500   298.25835      907.88632     -2265.1552     -1880.1959    
    101000   301.64476      503.88546     -2325.129      -1935.7989    
    101500   281.5556       1139.1701     -2311.7903     -1948.3891    
    102000   296.44197      2331.7953     -2275.0399     -1892.425     
    102500   308.63034      1356.8461     -2325.4439     -1927.0976    
    103000   285.67573      960.30571     -2312.1502     -1943.4312    
    103500   310.03239      496.30625     -2296.654      -1896.4981    
    104000   310.17813      1415.9977     -2325.4897     -1925.1457    
    104500   307.80663      1896.142      -2338.0324     -1940.7492    
    105000   301.551        767.47338     -2316.2044     -1926.9954    
    105500   291.55975      354.07524     -2300.8188     -1924.5053    
    106000   308.11821      38.480503     -2323.5392     -1925.8539    
    106500   276.06723      196.54571     -2320.9621     -1964.6447    
    107000   299.88252      1571.5211     -2300.1734     -1913.1178    
    107500   299.15949      1603.2623     -2314.0587     -1927.9363    
    108000   276.29916      843.31448     -2315.8092     -1959.1924    
    108500   317.18545      1901.026      -2306.0915     -1896.7031    
    109000   314.45542     -144.20044     -2311.7194     -1905.8547    
    109500   286.39514      2711.7099     -2315.3832     -1945.7357    
    110000   323.69252      340.39938     -2337.5069     -1919.7199    
    110500   305.02738      80.235875     -2300.076      -1906.38      
    111000   297.28662      2350.6322     -2326.2172     -1942.5121    
    111500   310.05006      2715.5064     -2295.6333     -1895.4546    
    112000   302.60755      874.8525      -2286.5205     -1895.9478    
    112500   307.14735      1190.1038     -2326.3586     -1929.9264    
    113000   296.14396      994.2295      -2348.3502     -1966.12      
    113500   291.35194      89.271589     -2333.3709     -1957.3256    
    114000   291.15411      1074.7131     -2296.3914     -1920.6015    
    114500   319.34192      860.13723     -2297.6715     -1885.4998    
    115000   324.3399       2411.468      -2315.6341     -1897.0116    
    115500   281.32118      796.13456     -2307.344      -1944.2453    
    116000   284.79831      768.14088     -2333.9778     -1966.3912    
    116500   303.15287     -67.036286     -2310.5308     -1919.2542    
    117000   302.25257      1418.8015     -2299.1515     -1909.0369    
    117500   287.10452      134.87665     -2323.185      -1952.6218    
    118000   299.62098      596.61843     -2298.7539     -1912.0358    
    118500   309.70091      2476.6829     -2309.6374     -1909.9093    
    119000   302.52331      1857.9561     -2334.1489     -1943.6848    
    119500   312.91486      2162.3679     -2349.4353     -1945.559     
    120000   308.67644      983.96084     -2331.8838     -1933.478     
    120500   301.50368      1842.11       -2298.1903     -1909.0423    
    121000   319.64431      1313.0694     -2318.06       -1905.498     
    121500   304.15819      675.43653     -2341.9539     -1949.3797    
    122000   291.68359      2768.2292     -2280.7831     -1904.3098    
    122500   295.40727     -186.50968     -2286.1592     -1904.8798    
    123000   287.48776     -113.92788     -2308.0174     -1936.9596    
    123500   293.25086     -551.81826     -2362.0138     -1983.5176    
    124000   293.80195      462.42797     -2306.3274     -1927.12      
    124500   307.8128       3808.5782     -2302.7327     -1905.4416    
    125000   287.75067      1362.9382     -2325.3484     -1953.9512    
    125500   311.71284      153.55397     -2346.8668     -1944.5419    
    126000   318.04912      2057.1406     -2339.0269     -1928.5238    
    126500   289.63972      1273.9055     -2313.3433     -1939.508     
    127000   296.33376      3145.4832     -2274.4948     -1892.0195    
    127500   295.22408     -718.82108     -2321.7572     -1940.7142    
    128000   285.75865      1242.3479     -2313.5877     -1944.7616    
    128500   310.72379      1197.428      -2299.7712     -1898.7228    
    129000   313.29539     -367.63598     -2303.2621     -1898.8947    
    129500   298.46463      1365.1394     -2340.583      -1955.3575    
    130000   310.41429      1981.9271     -2327.3509     -1926.7021    
    130500   315.00006      575.24889     -2327.5147     -1920.947     
    131000   303.10676      761.2277      -2344.5472     -1953.3301    
    131500   310.0039       1351.8259     -2324.5953     -1924.4761    
    132000   282.14385      1377.4803     -2293.4002     -1929.2398    
    132500   298.94099      392.51197     -2360.0663     -1974.2259    
    133000   292.06627      526.2573      -2344.1406     -1967.1734    
    133500   302.48962      1349.8223     -2318.9697     -1928.5492    
    134000   301.64921      872.52814     -2299.4293     -1910.0934    
    134500   285.63243      2530.4919     -2332.2608     -1963.5977    
    135000   294.24049      811.1916      -2322.5623     -1942.7889    
    135500   318.65086      1035.6612     -2327.712      -1916.4323    
    136000   307.17542      1128.8696     -2343.7284     -1947.26      
    136500   287.04757      726.96114     -2349.7438     -1979.2542    
    137000   286.38526      1456.0056     -2295.1417     -1925.5069    
    137500   293.22533      479.84513     -2304.9613     -1926.4981    
    138000   302.07665      690.97368     -2266.4076     -1876.5201    
    138500   293.36964      1030.1711     -2291.6331     -1912.9836    
    139000   303.57335      1422.9041     -2324.5262     -1932.7069    
    139500   300.43969      666.17841     -2331.2082     -1943.4335    
    140000   302.2167       893.50399     -2310.6863     -1920.618     
    140500   310.21545      2320.8394     -2307.565      -1907.1728    
    141000   315.33208      2284.58       -2330.4659     -1923.4697    
    141500   294.65494      1436.2537     -2312.5478     -1932.2394    
    142000   298.2082       208.63783     -2310.7977     -1925.9031    
    142500   288.72876      1113.2176     -2294.2735     -1921.6139    
    143000   294.68046      13.012869     -2345.061      -1964.7196    
    143500   301.39031      298.43322     -2329.1815     -1940.1798    
    144000   300.42228      986.84488     -2295.9318     -1908.1795    
    144500   290.06981      1361.4949     -2323.5442     -1949.1537    
    145000   321.48581      1890.8756     -2307.5021     -1892.5634    
    145500   309.57271      122.49879     -2323.3785     -1923.8159    
    146000   294.16209      862.82956     -2316.6747     -1937.0024    
    146500   316.00558      1684.4431     -2307.8405     -1899.9751    
    147000   296.16416      1050.9773     -2338.6987     -1956.4423    
    147500   307.3573       46.526117     -2339.196      -1942.4928    
    148000   303.72097      1189.4548     -2299.9418     -1907.932     
    148500   288.15622      1602.629      -2303.0005     -1931.0799    
    149000   295.68174      1060.7439     -2339.9591     -1958.3254    
    149500   316.99865      1406.8252     -2316.5534     -1907.4062    
    150000   297.30295      1399.0529     -2315.034      -1931.3078    
    150500   296.88401      1341.7437     -2353.4187     -1970.2333    
    151000   284.84755      293.21981     -2315.3714     -1947.7213    
    151500   307.20341      2189.2643     -2305.3212     -1908.8166    
    152000   307.89395      2948.5121     -2299.9319     -1902.5361    
    152500   299.0274       375.5412      -2341.0584     -1955.1065    
    153000   301.27227      143.43423     -2313.7481     -1924.8988    
    153500   304.97438      614.83566     -2295.3358     -1901.7082    
    154000   305.1936       313.18445     -2328.3461     -1934.4355    
    154500   288.66824      1257.762      -2366.1057     -1993.5243    
    155000   292.66025      2151.1374     -2322.5136     -1944.7797    
    155500   291.80226      2606.1347     -2291.9174     -1915.2909    
    156000   297.86458     -41.500642     -2330.0525     -1945.6015    
    156500   302.01846     -1045.9353     -2345.7702     -1955.9577    
    157000   304.43895      1310.141      -2307.3842     -1914.4476    
    157500   299.35614     -472.05212     -2331.8869     -1945.5107    
    158000   303.85598      60.794942     -2390.4416     -1998.2575    
    158500   299.38878      1041.3786     -2325.6379     -1939.2196    
    159000   289.24514      1519.8317     -2302.559      -1929.233     
    159500   320.77523     -19.130715     -2314.5952     -1900.5736    
    160000   284.35664     -1413.7273     -2311.7155     -1944.6991    
    160500   279.69658      2668.8606     -2292.9249     -1931.9231    
    161000   328.19335      1300.6488     -2298.3589     -1874.7627    
    161500   298.02119      802.64287     -2315.8856     -1931.2324    
    162000   297.85952      845.8191      -2333.2695     -1948.825     
    162500   326.99551      294.92501     -2320.7441     -1898.6941    
    163000   280.16059      569.41075     -2298.1549     -1936.5542    
    163500   290.25374      65.409292     -2371.5603     -1996.9325    
    164000   302.65715      2632.9644     -2330.5065     -1939.8697    
    164500   295.99462     -246.1429      -2292.9536     -1910.916     
    165000   326.17286      968.67553     -2293.8478     -1872.8595    
    165500   292.81929      510.65665     -2311.8388     -1933.8996    
    166000   295.26967      1216.8289     -2306.2078     -1925.106     
    166500   300.90966      417.43457     -2289.7715     -1901.3902    
    167000   302.55507      1442.6247     -2315.573      -1925.068     
    167500   314.25624      143.39589     -2341.9361     -1936.3285    
    168000   303.99408      2261.1415     -2361.9868     -1969.6244    
    168500   302.62561      939.62555     -2336.3868     -1945.7907    
    169000   308.99835      925.39176     -2301.6989     -1902.8776    
    169500   297.55135      2109.2313     -2323.3118     -1939.265     
    170000   290.36113      673.46723     -2316.8983     -1942.1319    
    170500   294.83018      1298.876      -2295.0458     -1914.5112    
    171000   294.49333      423.21586     -2347.8696     -1967.7697    
    171500   291.88611      1302.3428     -2301.5068     -1924.7721    
    172000   284.20453      1252.6914     -2284.9651     -1918.145     
    172500   282.60539      1349.2302     -2333.7518     -1968.9956    
    173000   278.16671      198.78106     -2316.1979     -1957.1707    
    173500   286.62392      245.79559     -2295.727      -1925.7841    
    174000   296.90745      746.98576     -2300.771      -1917.5553    
    174500   317.04199      452.65669     -2296.7343     -1887.5311    
    175000   301.25544      279.10645     -2334.1917     -1945.364     
    175500   291.7324       2905.7315     -2313.4442     -1936.9079    
    176000   302.65422      322.42146     -2277.5823     -1886.9493    
    176500   307.02045      730.00842     -2308.528      -1912.2595    
    177000   305.57277      2234.2298     -2323.3169     -1928.917     
    177500   296.31155      481.49481     -2313.3395     -1930.8929    
    178000   281.45016      314.8632      -2330.6552     -1967.3901    
    178500   296.85859      1731.9844     -2299.7983     -1916.6457    
    179000   318.83211      2326.4529     -2316.821      -1905.3073    
    179500   303.8383       1835.2498     -2318.2472     -1926.0859    
    180000   288.7733       632.25022     -2327.7947     -1955.0777    
    180500   306.93154      1360.2718     -2297.9564     -1901.8027    
    181000   308.31946     -118.31753     -2325.4324     -1927.4873    
    181500   300.27185     -1380.0287     -2329.6395     -1942.0814    
    182000   286.47427      2493.2605     -2295.9789     -1926.2292    
    182500   300.22115      2929.9413     -2300.6254     -1913.1327    
    183000   318.26964      3557.9438     -2292.8396     -1882.0519    
    183500   308.25104      1133.875      -2337.2426     -1939.3858    
    184000   297.65609      1200.4505     -2329.836      -1945.654     
    184500   306.09993      1088.6139     -2286.5219     -1891.4415    
    185000   303.8824       1485.277      -2315.4546     -1923.2364    
    185500   307.85692      1288.4821     -2340.4172     -1943.0692    
    186000   299.89333      1780.1426     -2300.503      -1913.4335    
    186500   312.43006     -655.99394     -2274.4681     -1871.2176    
    187000   305.81031      945.39715     -2328.6433     -1933.9368    
    187500   283.3711       2155.3991     -2284.6264     -1918.8819    
    188000   313.93349      826.90081     -2308.0183     -1902.8273    
    188500   294.67035      678.54724     -2340.9754     -1960.6471    
    189000   299.18306      889.79729     -2328.3137     -1942.1608    
    189500   306.93221      976.31911     -2285.0749     -1888.9203    
    190000   298.00679      1538.0727     -2309.6946     -1925.06      
    190500   317.23062      488.38703     -2322.9638     -1913.5172    
    191000   308.3159       453.42086     -2319.1454     -1921.2049    
    191500   294.67929     -31.391629     -2341.5857     -1961.2459    
    192000   309.21417      886.23777     -2319.9164     -1920.8165    
    192500   300.65358      356.64404     -2280.066      -1892.0152    
    193000   302.01837      45.851227     -2323.4287     -1933.6164    
    193500   290.44469      495.84972     -2313.4875     -1938.6132    
    194000   297.59074      664.3042      -2314.1593     -1930.0617    
    194500   306.85113      624.93013     -2310.0897     -1914.0398    
    195000   321.14671      898.24833     -2316.0019     -1901.5008    
    195500   300.44074      1564.4421     -2324.7884     -1937.0123    
    196000   308.50158      807.18671     -2301.2607     -1903.0806    
    196500   313.68549      2427.7315     -2260.674      -1855.803     
    197000   306.13424      2105.5658     -2315.4405     -1920.3159    
    197500   300.20656      5.2643558     -2336.6163     -1949.1424    
    198000   299.17824      856.49498     -2298.3832     -1912.2367    
    198500   306.27491      856.88607     -2299.4263     -1904.1201    
    199000   297.81789      889.6067      -2316.671      -1932.2802    
    199500   307.75412      1516.2513     -2339.2648     -1942.0494    
    200000   272.77567      878.21934     -2329.0989     -1977.0298    
    200500   294.76488     -1041.6941     -2299.8463     -1919.396     
    201000   300.23169      1556.4339     -2326.0493     -1938.543     
    201500   283.60598      2332.0967     -2340.3115     -1974.2639    
    202000   297.03103      779.58619     -2303.0997     -1919.7245    
    202500   302.65186      2790.5412     -2312.8086     -1922.1787    
    203000   291.58333      1314.4848     -2310.9871     -1934.6432    
    203500   299.55864      2331.6444     -2276.8307     -1890.1932    
    204000   294.52273      131.78252     -2303.7227     -1923.585     
    204500   299.08498      482.41087     -2313.1939     -1927.1677    
    205000   308.73061      2337.8083     -2300.9644     -1902.4886    
    205500   285.83437      743.08512     -2294.5916     -1925.6678    
    206000   276.3365       1177.5063     -2309.9156     -1953.2506    
    206500   311.40428     -389.24305     -2296.3997     -1894.473     
    207000   292.926        957.66715     -2304.1477     -1926.0708    
    207500   306.03812      1969.3369     -2332.7786     -1937.7781    
    208000   307.10717      1365.8256     -2321.2097     -1924.8293    
    208500   311.74587     -65.373531     -2314.1252     -1911.7577    
    209000   297.8047       1441.8675     -2306.2292     -1921.8554    
    209500   299.64012      1462.3353     -2336.8338     -1950.0911    
    210000   306.47994      3663.3656     -2286.5309     -1890.9601    
    210500   315.4401       1084.0421     -2304.2667     -1897.1311    
    211000   293.08957      1879.04       -2323.281      -1944.993     
    211500   310.34806      418.39351     -2342.144      -1941.5806    
    212000   294.20968      2633.5767     -2290.3814     -1910.6477    
    212500   276.56045     -364.02814     -2297.1739     -1940.2199    
    213000   288.78271      1635.4943     -2329.9459     -1957.2167    
    213500   296.9147       766.48915     -2294.6415     -1911.4165    
    214000   298.3817       547.74901     -2297.0106     -1911.8921    
    214500   294.48948      1657.1658     -2307.4943     -1927.3994    
    215000   307.63409      2768.6421     -2347.1572     -1950.0968    
    215500   283.14498     -687.94823     -2331.4172     -1965.9646    
    216000   312.88208      1290.0567     -2316.5513     -1912.7173    
    216500   275.90382      654.58288     -2286.5675     -1930.461     
    217000   288.34391      1376.9294     -2332.6185     -1960.4557    
    217500   287.41397      1759.8743     -2315.7588     -1944.7963    
    218000   302.32802      1368.2751     -2297.4061     -1907.1941    
    218500   293.64097      1330.5797     -2324.1587     -1945.1591    
    219000   287.99156     -84.485574     -2319.6931     -1947.9851    
    219500   300.31966      422.61491     -2296.7361     -1909.1163    
    220000   289.27741      720.65542     -2296.8494     -1923.4818    
    220500   290.59649      353.69851     -2297.3609     -1922.2907    
    221000   305.76457      2270.2121     -2326.2525     -1931.605     
    221500   290.22148      1950.3667     -2313.9834     -1939.3972    
    222000   313.64983     -539.75809     -2305.5991     -1900.7741    
    222500   288.71915      1369.9034     -2311.0097     -1938.3626    
    223000   305.19668     -292.75898     -2329.6466     -1935.7321    
    223500   323.49056      940.28894     -2319.8357     -1902.3094    
    224000   293.72407     -140.9763      -2316.726      -1937.619     
    224500   286.91374      1124.553      -2307.7434     -1937.4265    
    225000   323.13261      458.69159     -2300.641      -1883.5767    
    225500   299.16999      1275.473      -2315.3672     -1929.2312    
    226000   296.90769      998.38884     -2323.7997     -1940.5837    
    226500   314.77653      1004.4193     -2283.5109     -1877.2317    
    227000   299.5593       982.19445     -2320.0155     -1933.377     
    227500   294.39926      1283.7726     -2316.1125     -1936.1341    
    228000   299.35668      1561.8085     -2269.7063     -1883.3294    
    228500   290.47658     -373.46108     -2297.3178     -1922.4024    
    229000   294.24933     -338.21278     -2312.0511     -1932.2662    
    229500   305.05402     -277.5894      -2312.9115     -1919.1811    
    230000   311.37687      858.7957      -2306.0412     -1904.1499    
    230500   300.11189     -336.31928     -2342.8309     -1955.4793    
    231000   298.13515      1923.4297     -2333.6421     -1948.8418    
    231500   325.01826      23.678734     -2326.5919     -1907.0939    
    232000   300.1607       196.72957     -2325.5115     -1938.0969    
    232500   298.72664      935.19536     -2324.5547     -1938.991     
    233000   304.06067      1211.9051     -2290.571      -1898.1227    
    233500   292.66975      2341.9255     -2319.9242     -1942.1781    
    234000   291.04005      515.48461     -2320.2454     -1944.6027    
    234500   303.98502      983.48957     -2294.4276     -1902.077     
    235000   284.91771      1225.8186     -2316.4425     -1948.7019    
    235500   278.0943       556.4856      -2308.9943     -1950.0606    
    236000   302.91455      1260.3825     -2300.6146     -1909.6456    
    236500   283.55365      2582.928      -2271.0654     -1905.0853    
    237000   281.77494      2043.9329     -2320.1181     -1956.4338    
    237500   301.44794     -711.66032     -2317.3555     -1928.2795    
    238000   293.38371     -298.49832     -2295.2995     -1916.6319    
    238500   277.29015      538.35671     -2307.6048     -1949.709     
    239000   278.29497      1671.7595     -2305.2713     -1946.0786    
    239500   310.15958      2031.8995     -2300.9227     -1900.6026    
    240000   301.88333      830.97379     -2334.7764     -1945.1383    
    240500   288.76897      647.70517     -2305.1529     -1932.4415    
    241000   301.74587      1269.3227     -2316.7049     -1927.2443    
    241500   272.71076      931.93999     -2324.5833     -1972.5981    
    242000   296.41815      1471.0794     -2355.5995     -1973.0153    
    242500   310.71888      1332.6242     -2341.0961     -1940.0541    
    243000   319.27552      2679.8504     -2319.8923     -1907.8064    
    243500   333.07804      1050.3685     -2291.1928     -1861.292     
    244000   310.31748      1240.3516     -2328.1885     -1927.6646    
    244500   311.58094      366.43083     -2353.2132     -1951.0585    
    245000   311.56235      1847.3895     -2318.4402     -1916.3096    
    245500   310.33762      2753.1078     -2293.0738     -1892.5239    
    246000   290.60875      415.70897     -2316.4397     -1941.3537    
    246500   306.19115      975.089       -2321.5448     -1926.3467    
    247000   306.49639      1452.0861     -2292.2834     -1896.6914    
    247500   305.61076      476.03153     -2273.4972     -1879.0482    
    248000   301.67798      1176.9392     -2322.4428     -1933.0698    
    248500   286.63785      1482.2353     -2309.9555     -1939.9947    
    249000   298.2975       207.02213     -2273.0501     -1888.0403    
    249500   308.19313      1352.1383     -2307.5994     -1909.8174    
    250000   295.42897     -102.86621     -2326.3116     -1945.0042    
    250500   285.25959      1073.1962     -2291.9896     -1923.8077    
    251000   283.40902     -63.784988     -2283.3712     -1917.5778    
    251500   289.76415      444.40919     -2308.1229     -1934.127     
    252000   305.97978      2366.5328     -2272.8529     -1877.9276    
    252500   310.1839       1488.7961     -2307.4942     -1907.1427    
    253000   296.77948      81.366446     -2295.318      -1912.2675    
    253500   302.97804     -0.65314928    -2320.6457     -1929.5948    
    254000   283.17724      279.75147     -2335.6066     -1970.1124    
    254500   304.65645     -101.91523     -2305.1167     -1911.8995    
    255000   292.37195      1608.1991     -2294.9392     -1917.5775    
    255500   293.21067     -108.02694     -2342.2022     -1963.7579    
    256000   290.41922      452.55348     -2321.8655     -1947.0241    
    256500   305.20527      1218.6941     -2309.1169     -1915.1913    
    257000   318.09634      1102.6859     -2267.2021     -1856.6381    
    257500   306.6086      -209.18927     -2315.8519     -1920.115     
    258000   308.65987      813.4864      -2341.3769     -1942.9925    
    258500   305.31175      1399.6842     -2293.642      -1899.579     
    259000   328.73566     -378.26164     -2337.8478     -1913.5517    
    259500   294.72344      701.33121     -2337.6549     -1957.2581    
    260000   303.71939      603.33602     -2316.2627     -1924.2549    
    260500   296.14036      1990.2456     -2317.5582     -1935.3326    
    261000   286.7448      -338.27964     -2339.3125     -1969.2136    
    261500   300.44896     -16.915522     -2302.1109     -1914.3242    
    262000   300.92363      989.54909     -2315.0994     -1926.7       
    262500   278.89385      335.36763     -2342.643      -1982.6773    
    263000   296.09226      1785.3546     -2356.3874     -1974.2238    
    263500   303.39345      1904.5688     -2310.278      -1918.6909    
    264000   289.6186       2420.1044     -2267.9125     -1894.1044    
    264500   321.42183      1392.7505     -2303.272      -1888.4158    
    265000   303.90458      1011.5035     -2339.8612     -1947.6143    
    265500   298.45673      1516.0314     -2339.5395     -1954.3242    
    266000   323.78366      707.57657     -2321.4953     -1903.5907    
    266500   298.70203     -469.24623     -2306.4913     -1920.9594    
    267000   307.35594      951.7436      -2319.2579     -1922.5564    
    267500   300.62073      1467.547      -2313.0909     -1925.0825    
    268000   292.84265      1104.8236     -2338.8491     -1960.8798    
    268500   321.03391      1037.2376     -2350.9187     -1936.5632    
    269000   304.71515      1602.0249     -2300.6278     -1907.3348    
    269500   318.81613      975.72246     -2326.4929     -1914.9999    
    270000   304.17426      872.04106     -2298.9726     -1906.3777    
    270500   324.06853      663.64602     -2301.2964     -1883.0242    
    271000   296.75796      1050.5875     -2322.6768     -1939.6541    
    271500   281.62829     -164.87547     -2312.3988     -1948.9038    
    272000   319.35398      188.11522     -2313.2618     -1901.0746    
    272500   297.16815      1742.1025     -2313.5714     -1930.0192    
    273000   304.93371      1004.0259     -2329.054      -1935.4789    
    273500   333.52141      1006.8261     -2311.8709     -1881.3979    
    274000   292.0991       1697.9267     -2307.8762     -1930.8666    
    274500   289.75563      1778.4765     -2313.6911     -1939.7062    
    275000   324.51841     -23.663284     -2301.653      -1882.8001    
    275500   293.61168     -191.53683     -2295.8059     -1916.8441    
    276000   308.14915     -59.802555     -2331.7231     -1933.9978    
    276500   305.15482     -581.67205     -2313.4414     -1919.5809    
    277000   286.43396      279.80963     -2338.595      -1968.8973    
    277500   310.45841      1367.5337     -2340.0482     -1939.3424    
    278000   283.74954      553.16868     -2282.8091     -1916.5762    
    278500   298.07012      462.39503     -2296.1534     -1911.437     
    279000   319.89011      809.12828     -2323.1214     -1910.2422    
    279500   308.02462      2029.0065     -2359.2776     -1961.7131    
    280000   313.17729      835.41518     -2345.4935     -1941.2785    
    280500   316.71763      1491.1709     -2293.8501     -1885.0655    
    281000   304.99036      1380.2702     -2290.5042     -1896.856     
    281500   301.0229       441.56433     -2336.8289     -1948.3014    
    282000   308.16628      1040.4129     -2340.3366     -1942.5893    
    282500   321.52184      878.92964     -2306.2511     -1891.2658    
    283000   300.67885     -1197.9304     -2287.7907     -1899.7073    
    283500   298.61355     -401.6071      -2324.6793     -1939.2616    
    284000   302.04884      2003.5986     -2323.1029     -1933.2513    
    284500   307.06804      993.75068     -2325.4017     -1929.0718    
    285000   310.59781      406.89144     -2277.9871     -1877.1014    
    285500   298.02889     -784.29028     -2297.9897     -1913.3265    
    286000   281.84001      344.58322     -2314.3258     -1950.5575    
    286500   315.13996      576.39672     -2308.4808     -1901.7326    
    287000   305.06162      1996.1607     -2320.922      -1927.1818    
    287500   299.22925      1480.64       -2327.0347     -1940.8222    
    288000   287.59466      35.005575     -2298.1209     -1926.9251    
    288500   288.23943      1678.1249     -2301.2819     -1929.2539    
    289000   287.59596      830.94232     -2336.1429     -1964.9454    
    289500   302.87327      1697.7115     -2319.1011     -1928.1854    
    290000   307.85137      1930.2218     -2306.9999     -1909.6589    
    290500   279.96944     -47.190938     -2319.8185     -1958.4645    
    291000   308.45193      521.13427     -2334.4792     -1936.3632    
    291500   311.18286      2225.9051     -2305.1762     -1903.5354    
    292000   308.79927      1476.4329     -2265.2916     -1866.7273    
    292500   288.654        2387.6238     -2298.8746     -1926.3115    
    293000   290.38723      1425.4688     -2309.8998     -1935.0996    
    293500   313.45764      1337.2438     -2293.2946     -1888.7177    
    294000   304.69704      1533.215      -2288.1866     -1894.9169    
    294500   309.05531      699.05087     -2335.7259     -1936.8311    
    295000   303.34494     -1325.1584     -2319.4111     -1927.8865    
    295500   301.57002      2072.0951     -2270.3555     -1881.1219    
    296000   295.37918     -352.74056     -2310.9145     -1929.6713    
    296500   298.47042      324.53633     -2326.5738     -1941.3408    
    297000   282.84234      10.063006     -2301.6062     -1936.5442    
    297500   309.16951      2644.0207     -2299.4834     -1900.4411    
    298000   304.97401      1468.8323     -2333.7884     -1940.1613    
    298500   318.16492      14.495191     -2348.7568     -1938.1043    
    299000   305.5763      -71.487323     -2339.4911     -1945.0866    
    299500   297.4406       205.30426     -2288.9104     -1905.0066    
    300000   314.43025      1464.8473     -2315.6415     -1909.8093    
    300500   297.39396      1223.3835     -2335.7493     -1951.9057    
    301000   295.18257      1013.8845     -2297.6474     -1916.658     
    301500   307.69603      456.92554     -2323.0844     -1925.9439    
    302000   302.9512       1994.5532     -2318.8918     -1927.8755    
    302500   294.84836      835.11582     -2308.719      -1928.161     
    303000   304.22218      730.18054     -2291.9467     -1899.29      
    303500   293.55181      642.83746     -2283.6968     -1904.8122    
    304000   297.14518      2156.5162     -2326.972      -1943.4494    
    304500   322.13833      846.68295     -2322.8296     -1907.0486    
    305000   309.05943      2929.872      -2284.669      -1885.7689    
    305500   305.55011     -1082.0667     -2323.1464     -1928.7757    
    306000   295.24411      696.09285     -2296.0234     -1914.9546    
    306500   309.98631      1231.6815     -2335.7934     -1935.697     
    307000   285.24452     -512.57166     -2323.8226     -1955.6601    
    307500   312.13471      2520.2711     -2306.4223     -1903.5529    
    308000   285.97122      578.22891     -2316.6079     -1947.5075    
    308500   322.70222      839.02554     -2351.2084     -1934.6996    
    309000   307.8319       1963.8059     -2331.7995     -1934.4837    
    309500   301.89        -96.90393      -2315.6543     -1926.0076    
    310000   321.94101      866.54171     -2304.5796     -1889.0533    
    310500   295.25695      1215.7102     -2330.3102     -1949.2248    
    311000   303.94917      705.62207     -2345.3436     -1953.0392    
    311500   312.90477      1500.9761     -2298.773      -1894.9097    
    312000   298.97405      1543.4736     -2297.8387     -1911.9557    
    312500   313.58323     -244.8541      -2346.6148     -1941.8759    
    313000   278.80875      696.78184     -2306.2606     -1946.4047    
    313500   308.61695      1279.5615     -2292.383      -1894.054     
    314000   302.34294      885.07732     -2318.3838     -1928.1526    
    314500   306.79535      100.33694     -2333.1408     -1937.1629    
    315000   300.75112      1489.9009     -2323.9348     -1935.7581    
    315500   285.91916     -567.77342     -2334.9425     -1965.9093    
    316000   293.73601      52.558284     -2339.9298     -1960.8075    
    316500   290.26185     -431.72307     -2287.8644     -1913.2261    
    317000   286.64087      957.72285     -2325.6643     -1955.6996    
    317500   285.06351      932.09125     -2318.0248     -1950.0959    
    318000   308.49012      1618.9078     -2320.7202     -1922.5549    
    318500   288.97228      165.74627     -2318.0186     -1945.0447    
    319000   288.49484      1807.7706     -2351.2419     -1978.8843    
    319500   297.31252      1493.6841     -2302.4006     -1918.6621    
    320000   304.624        751.82736     -2318.687      -1925.5116    
    320500   313.43088      186.37873     -2299.1207     -1894.5784    
    321000   324.39745     -784.61313     -2309.393      -1890.6962    
    321500   298.9983       324.5865      -2330.0082     -1944.0939    
    322000   302.05102      58.832576     -2306.8354     -1916.981     
    322500   304.58384      1507.4972     -2275.4115     -1882.2879    
    323000   298.95912      877.69224     -2326.0405     -1940.1767    
    323500   308.77784      349.88829     -2323.1165     -1924.5798    
    324000   301.20521      1106.7902     -2276.9173     -1888.1545    
    324500   301.49349      946.46636     -2307.3873     -1918.2524    
    325000   309.70176      1143.5371     -2338.4725     -1938.7433    
    325500   313.80631      1611.0405     -2304.3338     -1899.3069    
    326000   302.83362      746.65166     -2349.5503     -1958.6858    
    326500   294.41051      2577.169      -2307.0489     -1927.056     
    327000   308.2474       2644.0475     -2321.1893     -1923.3372    
    327500   273.33056     -1015.9311     -2308.895      -1956.1097    
    328000   309.94498      573.14827     -2304.3686     -1904.3255    
    328500   315.36704      872.5573      -2338.1988     -1931.1575    
    329000   287.9698       1071.8706     -2330.9475     -1959.2676    
    329500   288.15421      946.96717     -2311.9323     -1940.0144    
    330000   298.58083      1300.5133     -2324.2231     -1938.8476    
    330500   298.31828      1590.3936     -2274.1526     -1889.1159    
    331000   315.62645     -215.43146     -2316.1926     -1908.8164    
    331500   293.84021      2475.4641     -2333.2029     -1953.9461    
    332000   305.44754      827.92336     -2297.9203     -1903.682     
    332500   302.13909      1573.4062     -2300.7263     -1910.7582    
    333000   273.0699       26.843656     -2321.643      -1969.1942    
    333500   281.87192      943.04501     -2317.8403     -1954.0308    
    334000   296.2992       1953.3807     -2312.0619     -1929.6313    
    334500   304.97517      1686.6718     -2292.3855     -1898.7569    
    335000   290.61929      1429.7267     -2328.837      -1953.7374    
    335500   297.78768      1480.1592     -2314.3711     -1930.0193    
    336000   290.38237      654.95045     -2283.1816     -1908.3878    
    336500   303.34325      1020.8147     -2321.1257     -1929.6034    
    337000   293.19472      190.73007     -2346.4722     -1968.0485    
    337500   296.87722     -449.05364     -2332.1201     -1948.9434    
    338000   313.96146      792.61206     -2328.8305     -1923.6034    
    338500   296.4459       1707.0401     -2362.8903     -1980.2704    
    339000   301.02723     -1136.0187     -2337.1908     -1948.6578    
    339500   297.59802     -178.49258     -2306.4952     -1922.3882    
    340000   314.95238      1842.4825     -2331.993      -1925.4869    
    340500   269.4521       2120.0945     -2325.2434     -1977.4641    
    341000   311.25792      1353.7244     -2337.3892     -1935.6514    
    341500   287.78181      1958.8194     -2294.0005     -1922.5631    
    342000   292.51555     -653.35192     -2322.7369     -1945.1898    
    342500   288.18594      623.92084     -2340.8871     -1968.9281    
    343000   305.95801      1323.6446     -2310.1256     -1915.2284    
    343500   312.05879      2403.0274     -2337.4434     -1934.6721    
    344000   271.24409      963.05867     -2338.754      -1988.6618    
    344500   295.16807      385.03714     -2331.2897     -1950.319     
    345000   302.75548     -158.09195     -2329.5914     -1938.8277    
    345500   295.80461      861.45867     -2278.179      -1896.3867    
    346000   305.0295       2364.7263     -2311.438      -1917.7392    
    346500   309.09147      263.29911     -2340.9495     -1942.008     
    347000   312.49832      316.53187     -2302.9035     -1899.5648    
    347500   302.11427      2421.1056     -2303.6347     -1913.6986    
    348000   299.96307      801.92657     -2336.1398     -1948.9802    
    348500   307.1897       797.32252     -2322.8207     -1926.3338    
    349000   291.70162      3070.9508     -2272.0506     -1895.554     
    349500   299.56952      1297.838      -2344.9773     -1958.3256    
    350000   299.45406      769.40929     -2310.7646     -1924.262     
    350500   332.74234      872.40983     -2324.21       -1894.7426    
    351000   289.70794      1890.5408     -2327.7505     -1953.8271    
    351500   311.08548      575.88819     -2321.2658     -1919.7507    
    352000   312.49613      1461.1578     -2312.9174     -1909.5815    
    352500   299.28256      847.37079     -2354.9639     -1968.6826    
    353000   290.73365      490.38544     -2311.0211     -1935.7739    
    353500   300.2657       786.36898     -2284.9778     -1897.4276    
    354000   292.34551      2353.9026     -2306.5915     -1929.2639    
    354500   289.06274      193.5784      -2352.7103     -1979.6197    
    355000   296.47249      1236.6162     -2307.7799     -1925.1256    
    355500   290.08389      3625.8638     -2286.9672     -1912.5586    
    356000   296.74198      531.62194     -2349.4382     -1966.4361    
    356500   305.47698      1170.3269     -2341.314      -1947.0377    
    357000   299.0995       526.66504     -2306.1226     -1920.0776    
    357500   300.5135       1222.185      -2310.2785     -1922.4085    
    358000   279.06432      607.16293     -2313.123      -1952.9372    
    358500   315.11579     -863.07829     -2312.1438     -1905.4267    
    359000   303.29699      1541.3702     -2308.2084     -1916.7458    
    359500   293.943        1529.5107     -2325.9375     -1946.548     
    360000   307.37813      1155.5968     -2323.9469     -1927.2168    
    360500   310.72765      6.9362076     -2282.8239     -1881.7706    
    361000   276.00999      588.28889     -2265.85       -1909.6065    
    361500   294.17202      1005.5226     -2314.4838     -1934.7987    
    362000   294.17299      1923.5521     -2312.0559     -1932.3695    
    362500   313.65595      1985.3315     -2332.7592     -1927.9264    
    363000   278.17752      2088.5479     -2317.0143     -1957.9732    
    363500   285.90378      1284.1725     -2329.9086     -1960.8953    
    364000   318.11219      695.82627     -2315.2612     -1904.6767    
    364500   297.06444     -1373.0996     -2316.1809     -1932.7626    
    365000   284.34742      1071.5193     -2330.2543     -1963.2497    
    365500   283.95973      1958.2139     -2268.9659     -1902.4617    
    366000   299.45398      2371.0589     -2322.5966     -1936.0941    
    366500   287.18331      243.31831     -2335.7108     -1965.046     
    367000   313.79073      1529.1124     -2305.0152     -1900.0085    
    367500   290.82839      1716.1743     -2304.4504     -1929.0809    
    368000   304.88992     -576.35726     -2352.6258     -1959.1072    
    368500   276.70523      591.22508     -2357.5681     -2000.4272    
    369000   292.55542      540.34562     -2324.3271     -1946.7286    
    369500   285.93893     -1167.8876     -2294.2722     -1925.2135    
    370000   313.29372      385.05727     -2303.686      -1899.3207    
    370500   285.44591      2686.795      -2323.4406     -1955.0182    
    371000   294.84045      1027.9016     -2312.7818     -1932.234     
    371500   304.98042      2701.4185     -2282.4066     -1888.7712    
    372000   289.10965      409.97238     -2293.0324     -1919.8813    
    372500   305.00049     -265.17354     -2339.383      -1945.7217    
    373000   300.14539      2717.0188     -2294.4125     -1907.0176    
    373500   288.2839      -408.33545     -2293.1329     -1921.0476    
    374000   309.95555     -285.72971     -2334.5266     -1934.4698    
    374500   291.73764      1717.4873     -2291.2928     -1914.7497    
    375000   289.68577      1434.3735     -2336.3881     -1962.4933    
    375500   283.59891      1872.19       -2321.4042     -1955.3657    
    376000   290.41504     -283.8714      -2297.7054     -1922.8694    
    376500   299.41248      773.38911     -2342.3357     -1955.8868    
    377000   312.11008      1940.0393     -2318.3633     -1915.5257    
    377500   295.44931      364.70502     -2285.4907     -1904.157     
    378000   290.87019      1201.7082     -2325.9099     -1950.4864    
    378500   304.48946      496.12145     -2323.468      -1930.4663    
    379000   311.05319      1634.079      -2331.2318     -1929.7584    
    379500   272.79668      366.59297     -2307.8343     -1955.7381    
    380000   276.68566      1224.7519     -2351.2247     -1994.109     
    380500   291.91645      1363.6411     -2316.1713     -1939.3974    
    381000   304.58513      1036.3368     -2296.3839     -1903.2587    
    381500   308.58534     -819.08901     -2351.8122     -1953.524     
    382000   294.87704     -1066.4509     -2310.791      -1930.1959    
    382500   315.59083     -400.24048     -2308.4387     -1901.1085    
    383000   302.95298      904.21196     -2331.7104     -1940.6918    
    383500   320.08941      786.21047     -2347.2167     -1934.0802    
    384000   299.85799      1354.0539     -2295.3857     -1908.3617    
    384500   318.60794      566.84877     -2306.0709     -1894.8465    
    385000   302.30137      2155.078      -2332.9869     -1942.8094    
    385500   290.35089      1357.6704     -2334.5093     -1959.756     
    386000   294.12136      1772.1854     -2305.8194     -1926.1996    
    386500   315.58295      1976.6212     -2318.2485     -1910.9285    
    387000   278.39096      230.67985     -2322.5628     -1963.2461    
    387500   294.03608      845.38746     -2324.6421     -1945.1324    
    388000   305.5171       1643.9125     -2312.4024     -1918.0743    
    388500   300.71291      536.17745     -2352.606      -1964.4786    
    389000   292.42426      656.11014     -2335.6338     -1958.2045    
    389500   299.19167     -507.97864     -2300.0804     -1913.9165    
    390000   301.47323      1032.8948     -2303.2122     -1914.1035    
    390500   289.49812      397.50769     -2343.567      -1969.9144    
    391000   291.75316      1083.4996     -2323.9403     -1947.3772    
    391500   292.22571      891.54045     -2309.0331     -1931.8601    
    392000   291.63431      84.946913     -2291.712      -1915.3023    
    392500   307.40101      1279.8607     -2282.4773     -1885.7177    
    393000   293.20437     -99.908255     -2326.9494     -1948.5132    
    393500   283.18065      1100.335      -2305.5425     -1940.0438    
    394000   321.91736      636.86826     -2310.0111     -1894.5153    
    394500   303.48047      345.26681     -2329.538      -1937.8386    
    395000   301.01619      313.40623     -2331.7637     -1943.2449    
    395500   298.20616      1383.4578     -2289.7333     -1904.8413    
    396000   313.06232      311.79136     -2290.7887     -1886.722     
    396500   304.16128      1885.3693     -2301.0234     -1908.4452    
    397000   306.36482     -532.1509      -2333.0815     -1937.6592    
    397500   284.6012       510.48512     -2334.0246     -1966.6925    
    398000   307.63837      54.422656     -2308.6763     -1911.6103    
    398500   292.29115      1089.4139     -2311.9344     -1934.677     
    399000   277.30902      633.46184     -2340.6985     -1982.7783    
    399500   301.43946      47.509591     -2343.7595     -1954.6943    
    400000   313.11241      822.28988     -2326.3486     -1922.2173    
    400500   312.90438      534.79454     -2296.1606     -1892.2978    
    401000   305.74445      1648.2407     -2316.9059     -1922.2844    
    401500   300.36948      735.99326     -2334.1812     -1946.497     
    402000   298.61214      1303.9111     -2316.8668     -1931.4508    
    402500   296.35742      956.53872     -2317.3952     -1934.8894    
    403000   307.4215       575.77159     -2348.9284     -1952.1423    
    403500   310.57537      93.630571     -2344.1236     -1943.2669    
    404000   320.77468      2039.8978     -2314.6873     -1900.6663    
    404500   281.86112     -563.79286     -2305.7824     -1941.9869    
    405000   302.66045      615.54457     -2326.8495     -1936.2085    
    405500   308.98155     -115.39574     -2308.7754     -1909.9758    
    406000   290.08923      714.01176     -2335.4141     -1960.9986    
    406500   298.98374      626.08081     -2342.5851     -1956.6896    
    407000   313.29641      973.55907     -2311.6463     -1907.2776    
    407500   292.08456      1448.7364     -2298.4145     -1921.4237    
    408000   278.42455      992.11645     -2328.8529     -1969.4929    
    408500   296.15287      2160.4943     -2336.7499     -1954.5082    
    409000   307.28097      117.88554     -2328.767      -1932.1622    
    409500   311.8896       403.19908     -2310.0211     -1907.4681    
    410000   301.66915      321.40309     -2340.2949     -1950.9334    
    410500   289.60935      841.06925     -2320.2307     -1946.4346    
    411000   307.43274     -156.04795     -2301.19       -1904.3894    
    411500   287.20307      1268.8206     -2300.2574     -1929.567     
    412000   287.33039     -320.92029     -2325.9603     -1955.1056    
    412500   283.71688      164.10477     -2366.7486     -2000.5579    
    413000   287.98025      936.19909     -2312.3756     -1940.6822    
    413500   300.8615       1834.547      -2311.2378     -1922.9187    
    414000   294.90137      1252.9668     -2355.1844     -1974.558     
    414500   307.80406      2810.6092     -2334.9777     -1937.6979    
    415000   292.94731      2512.3677     -2314.3664     -1936.262     
    415500   314.77548      2197.9226     -2308.7196     -1902.4418    
    416000   327.21846      1467.7381     -2296.9032     -1874.5654    
    416500   295.25082      1589.9105     -2313.2581     -1932.1806    
    417000   292.69316     -871.06553     -2313.9025     -1936.1261    
    417500   303.04038      3710.2135     -2280.3962     -1889.2648    
    418000   296.36733      121.78451     -2316.6156     -1934.097     
    418500   287.78479     -873.23376     -2315.031      -1943.5898    
    419000   308.1297       385.71468     -2284.8346     -1887.1345    
    419500   313.68446      1497.4306     -2318.7077     -1913.8381    
    420000   307.27582      2231.9094     -2335.927      -1939.3289    
    420500   287.7521       861.34701     -2328.8569     -1957.4579    
    421000   325.919        1242.8543     -2315.4397     -1894.779     
    421500   295.07018      796.52285     -2313.4074     -1932.563     
    422000   288.61029      600.07796     -2314.9598     -1942.4532    
    422500   287.38355      1320.9728     -2300.1219     -1929.1986    
    423000   303.27358      688.35488     -2330.8457     -1939.4133    
    423500   297.86407      1669.3194     -2373.1827     -1988.7323    
    424000   297.69174      2208.3944     -2319.6029     -1935.3749    
    424500   313.4053       935.82287     -2325.69       -1921.1807    
    425000   292.41532      1121.1357     -2316.161      -1938.7433    
    425500   305.85572     -441.25774     -2363.9403     -1969.1752    
    426000   313.08803      1218.7553     -2314.5809     -1910.481     
    426500   281.97106      1984.7748     -2290.8058     -1926.8683    
    427000   278.78711      1384.5568     -2322.6862     -1962.8583    
    427500   320.60167      937.42293     -2319.7083     -1905.9107    
    428000   312.40922      2071.4013     -2323.3306     -1920.1069    
    428500   273.65629      900.9048      -2322.7799     -1969.5742    
    429000   302.11217      1807.7682     -2338.5952     -1948.6618    
    429500   297.04814      1333.1083     -2314.3152     -1930.9179    
    430000   307.52819      998.07119     -2272.293      -1875.3692    
    430500   300.61102     -603.75258     -2303.2765     -1915.2806    
    431000   292.37052      899.14886     -2317.6548     -1940.2949    
    431500   327.76174      2343.9274     -2335.2842     -1912.2452    
    432000   313.07727      159.66793     -2287.7203     -1883.6343    
    432500   304.34875      875.4654      -2328.4126     -1935.5925    
    433000   290.79718      870.42609     -2327.5988     -1952.2696    
    433500   313.90777      203.09677     -2301.2055     -1896.0476    
    434000   315.24749      127.80736     -2334.7499     -1927.8628    
    434500   265.17942      1718.1494     -2313.2653     -1971.0007    
    435000   275.11895      720.86876     -2308.4606     -1953.3671    
    435500   309.40251      2160.3543     -2304.0651     -1904.7222    
    436000   277.68252      723.73274     -2304.5475     -1946.1452    
    436500   302.53725     -673.02895     -2332.1205     -1941.6385    
    437000   308.12382      182.62215     -2339.9118     -1942.2192    
    437500   330.57638      1635.8279     -2329.3353     -1902.6634    
    438000   287.48446      1257.1658     -2304.2628     -1933.2093    
    438500   306.92729      1348.4355     -2342.588      -1946.4398    
    439000   286.86634      1137.9768     -2287.475      -1917.2192    
    439500   312.1804       1689.9944     -2307.4158     -1904.4875    
    440000   287.04253      1492.57       -2297.1488     -1926.6657    
    440500   280.63996      545.62168     -2311.9627     -1949.7433    
    441000   269.48547      380.86257     -2349.6333     -2001.8109    
    441500   307.06409      625.94202     -2351.3799     -1955.0551    
    442000   309.35175      1050.7167     -2326.2928     -1927.0153    
    442500   318.26905      1492.0131     -2332.1845     -1921.3976    
    443000   292.56214      600.15225     -2348.2505     -1970.6433    
    443500   299.64485      1116.1907     -2313.1505     -1926.4016    
    444000   301.63159      713.57323     -2309.2677     -1919.9546    
    444500   285.86608      1142.3894     -2331.8826     -1962.9179    
    445000   305.93118      1655.6498     -2320.6271     -1925.7645    
    445500   322.2242      -236.50907     -2330.399      -1914.5072    
    446000   294.79744     -551.38907     -2331.1026     -1950.6102    
    446500   300.18711      2178.9996     -2283.0213     -1895.5726    
    447000   293.62681      324.73989     -2299.8835     -1920.9021    
    447500   305.21325      1218.4862     -2317.8112     -1923.8753    
    448000   285.67999      1831.5902     -2281.9355     -1913.2109    
    448500   304.59768     -406.46614     -2336.3542     -1943.2128    
    449000   290.18612      522.31345     -2342.5181     -1967.9776    
    449500   326.04271      1628.4422     -2342.2639     -1921.4436    
    450000   312.81748      584.74202     -2322.2237     -1918.4731    
    450500   302.34747      503.0229      -2357.032      -1966.7949    
    451000   295.01727      2482.9997     -2307.4994     -1926.7233    
    451500   300.72345      720.06002     -2306.019      -1917.878     
    452000   288.56292      615.19887     -2338.8033     -1966.3578    
    452500   299.2559       1710.0164     -2323.6559     -1937.4091    
    453000   300.81925      1649.0832     -2305.0441     -1916.7795    
    453500   319.70319      1500.1669     -2269.0783     -1856.4403    
    454000   322.17223      1075.5321     -2329.0925     -1913.2678    
    454500   304.68391      1933.0301     -2342.3513     -1949.0986    
    455000   294.01175      1510.5627     -2322.1578     -1942.6795    
    455500   322.85658      1723.1652     -2312.1277     -1895.4197    
    456000   294.72074      1923.7071     -2310.6242     -1930.2309    
    456500   295.47156      542.8572      -2299.6286     -1918.2662    
    457000   297.37196      298.14882     -2306.9737     -1923.1585    
    457500   283.94611      863.5744      -2299.0715     -1932.5849    
    458000   291.9681       794.88984     -2317.7263     -1940.8857    
    458500   309.29524      3437.216      -2292.1532     -1892.9487    
    459000   309.00921      419.23529     -2331.8495     -1933.0142    
    459500   304.21019      737.38567     -2335.9865     -1943.3452    
    460000   303.54091      2712.7978     -2276.9859     -1885.2084    
    460500   311.57086      1196.7649     -2312.4857     -1910.3441    
    461000   286.57234     -550.53704     -2303.5576     -1933.6814    
    461500   295.11701      1381.2176     -2313.3663     -1932.4615    
    462000   306.38372      2632.2526     -2295.7621     -1900.3155    
    462500   314.34719      1191.6682     -2310.16       -1904.435     
    463000   297.04381     -286.00947     -2342.6157     -1959.224     
    463500   303.43006      536.89797     -2314.4857     -1922.8513    
    464000   301.52432      448.22691     -2295.1407     -1905.9661    
    464500   312.9887       1137.9338     -2323.6793     -1919.7077    
    465000   301.69249      965.79401     -2323.6486     -1934.2569    
    465500   303.26812      455.23345     -2367.6647     -1976.2394    
    466000   310.12561      659.19572     -2332.9202     -1932.6439    
    466500   299.9203       2938.2145     -2317.8107     -1930.7064    
    467000   284.22465      715.73285     -2324.0849     -1957.2387    
    467500   293.75031      2510.4688     -2302.174      -1923.0332    
    468000   300.51695      1552.5718     -2300.5074     -1912.633     
    468500   282.19185      1258.1325     -2335.2414     -1971.019     
    469000   302.84643      1550.1969     -2320.4241     -1929.543     
    469500   306.06923      628.71566     -2312.9616     -1917.9209    
    470000   298.53933      821.35765     -2365.5017     -1980.1798    
    470500   307.83094      1231.3109     -2335.8824     -1938.5679    
    471000   295.88996      514.19247     -2289.3223     -1907.4199    
    471500   314.45498      1641.4783     -2275.5574     -1869.6932    
    472000   301.06115      846.67848     -2299.6918     -1911.115     
    472500   296.89787     -452.29468     -2310.1438     -1926.9405    
    473000   298.51312      203.77352     -2282.5594     -1897.2713    
    473500   295.35345      176.1917      -2263.5605     -1882.3505    
    474000   304.68163     -501.36963     -2333.7474     -1940.4976    
    474500   290.40246     -230.00576     -2298.208      -1923.3882    
    475000   306.94687     -368.22314     -2281.099      -1884.9255    
    475500   284.36985      910.01794     -2287.4614     -1920.4279    
    476000   300.14482      103.07499     -2349.0225     -1961.6283    
    476500   274.162       -232.65849     -2295.9321     -1942.0738    
    477000   323.24855      2690.8399     -2313.5509     -1896.337     
    477500   304.79808      287.98372     -2311.9267     -1918.5266    
    478000   299.05908      927.59155     -2308.4129     -1922.4201    
    478500   305.27158      1317.1811     -2325.4173     -1931.4061    
    479000   289.62519      129.11709     -2356.605      -1982.7884    
    479500   291.64958      1969.201      -2319.1667     -1942.7373    
    480000   295.77289      505.98862     -2318.162      -1936.4107    
    480500   311.92742     -544.76593     -2340.5912     -1937.9894    
    481000   318.67967      2113.0856     -2314.0513     -1902.7344    
    481500   291.34328     -715.26192     -2321.8525     -1945.8184    
    482000   269.58818      2295.6914     -2285.4389     -1937.4839    
    482500   303.41443      1730.2806     -2306.5821     -1914.9679    
    483000   306.88437      134.06992     -2329.3731     -1933.2803    
    483500   285.06467      535.61032     -2326.0932     -1958.1628    
    484000   315.40426      1717.1158     -2325.5649     -1918.4755    
    484500   290.94405      1561.7881     -2291.8134     -1916.2946    
    485000   294.18086      1807.9557     -2347.7744     -1968.0779    
    485500   304.69164      1057.8952     -2330.4031     -1937.1404    
    486000   298.19433      2542.5812     -2302.2116     -1917.3349    
    486500   274.10684     -475.16896     -2332.8386     -1979.0514    
    487000   286.83129      1390.0245     -2324.019      -1953.8085    
    487500   299.12459      3239.8233     -2300.4315     -1914.3541    
    488000   331.20393      314.82754     -2316.8747     -1889.3928    
    488500   303.27043      1672.1626     -2341.379      -1949.9506    
    489000   301.34527      129.55613     -2330.3016     -1941.358     
    489500   317.25907      654.37734     -2309.3864     -1899.903     
    490000   288.0324       2007.6717     -2286.6994     -1914.9386    
    490500   279.60638      1311.4255     -2329.2162     -1968.3308    
    491000   305.78961      1818.9588     -2329.448      -1934.7682    
    491500   297.40682      510.15593     -2301.0966     -1917.2364    
    492000   309.85274      2252.2062     -2310.8283     -1910.9042    
    492500   279.55905      2410.8713     -2306.6542     -1945.8299    
    493000   291.38294     -732.69112     -2346.612      -1970.5267    
    493500   306.98493      400.9231      -2301.8338     -1905.6112    
    494000   296.81098      959.77651     -2308.9673     -1925.8761    
    494500   278.17936      1656.7548     -2318.874      -1959.8304    
    495000   300.65575      1425.515      -2335.4172     -1947.3636    
    495500   322.14243      1685.129      -2299.0163     -1883.2301    
    496000   303.72375      480.71676     -2326.0349     -1934.0215    
    496500   296.12572      833.4159      -2328.3501     -1946.1434    
    497000   313.2303       808.50209     -2292.9366     -1888.6532    
    497500   302.67819     -246.60987     -2313.2523     -1922.5884    
    498000   290.91837      910.15189     -2313.6452     -1938.1595    
    498500   288.69603      2171.5727     -2301.9372     -1929.3199    
    499000   306.30947      1972.9118     -2337.0618     -1941.711     
    499500   289.58316      397.96324     -2312.2976     -1938.5353    
    500000   317.66497      1839.7906     -2307.5526     -1897.5453    
    500500   282.72901      1572.5341     -2300.7383     -1935.8226    
    501000   289.95307     -265.22308     -2315.4446     -1941.2048    
    501500   318.26348      458.46249     -2320.5399     -1909.7602    
    502000   286.40098      1722.0531     -2322.67       -1953.0149    
    502500   308.26197      1341.5039     -2344.6629     -1946.792     
    503000   300.50916      1488.9394     -2291.0773     -1903.2129    
    503500   297.72748      456.90694     -2313.7958     -1929.5216    
    504000   290.68425      2262.5092     -2318.9061     -1943.7226    
    504500   292.68664      1230.1714     -2309.7199     -1931.952     
    505000   287.76426      338.13005     -2313.865      -1942.4503    
    505500   302.37022      800.371       -2332.3238     -1942.0574    
    506000   297.43344      987.43241     -2292.1706     -1908.276     
    506500   288.68893      1086.7111     -2322.859      -1950.2509    
    507000   308.69084      607.79467     -2336.5861     -1938.1617    
    507500   297.70294      1442.1218     -2310.7237     -1926.4813    
    508000   305.02312      393.75008     -2318.9628     -1925.2723    
    508500   307.46009      1989.7763     -2301.4765     -1904.6406    
    509000   309.57631      2324.7168     -2278.916      -1879.3488    
    509500   290.22497      273.30054     -2312.0107     -1937.42      
    510000   311.90148      359.34302     -2316.0164     -1913.448     
    510500   315.47775      1701.7434     -2300.8316     -1893.6474    
    511000   308.91611      438.49439     -2348.1031     -1949.3879    
    511500   311.4962       1387.3324     -2321.793      -1919.7477    
    512000   326.20492      1650.4861     -2307.9703     -1886.9406    
    512500   282.7363      -698.68112     -2317.0992     -1952.1741    
    513000   291.4415      -484.12853     -2335.2916     -1959.1307    
    513500   301.11093      1463.2316     -2307.0268     -1918.3857    
    514000   303.2978      -488.11487     -2315.1701     -1923.7064    
    514500   286.3115       1707.2942     -2320.2686     -1950.729     
    515000   306.96065      1403.3042     -2319.4093     -1923.2181    
    515500   309.95857      732.31938     -2331.3354     -1931.2747    
    516000   297.05186      309.53006     -2319.0415     -1935.6394    
    516500   303.12628      300.01359     -2317.1133     -1925.871     
    517000   316.57776      2593.0681     -2285.9579     -1877.3539    
    517500   294.45605      560.71744     -2302.4923     -1922.4406    
    518000   295.59123      357.38642     -2316.6967     -1935.1798    
    518500   325.82381      1040.7058     -2309.2018     -1888.664     
    519000   308.27734     -91.239786     -2297.2134     -1899.3227    
    519500   283.74199      1367.5468     -2307.4419     -1941.2187    
    520000   326.07896      232.56307     -2324.5004     -1903.6332    
    520500   308.08218      1015.6756     -2305.5231     -1907.8843    
    521000   305.02442      171.67749     -2339.4228     -1945.7306    
    521500   320.55009      700.00456     -2325.5989     -1911.8679    
    522000   315.85513      1052.0013     -2303.5723     -1895.901     
    522500   298.74615      708.00093     -2321.9452     -1936.3563    
    523000   289.67335      53.174285     -2309.896      -1936.0173    
    523500   305.49982      1250.2263     -2290.3308     -1896.025     
    524000   303.02733     -218.0943      -2311.8033     -1920.6887    
    524500   289.00817      1611.1107     -2311.3002     -1938.2801    
    525000   273.94505      1844.7605     -2323.7814     -1970.2031    
    525500   306.67637      2649.3446     -2316.4557     -1920.6313    
    526000   305.78883      828.17879     -2337.1154     -1942.4366    
    526500   282.8071       1028.5445     -2347.793      -1982.7765    
    527000   289.13295      1542.1794     -2324.641      -1951.4598    
    527500   296.96407      262.3119      -2321.2857     -1937.9969    
    528000   317.57798      1418.789      -2287.027      -1877.132     
    528500   325.85483      243.73496     -2333.9726     -1913.3948    
    529000   318.19727     -45.074685     -2339.7694     -1929.0751    
    529500   269.91621      1369.6572     -2331.4274     -1983.049     
    530000   281.98042      756.85767     -2333.9436     -1969.9941    
    530500   292.02856      1735.45       -2315.9878     -1939.0693    
    531000   291.32417      1358.1919     -2275.337      -1899.3276    
    531500   307.99656      589.14877     -2313.277      -1915.7487    
    532000   309.93476      92.724838     -2316.4968     -1916.4669    
    532500   301.90392      2064.4594     -2308.1108     -1918.4462    
    533000   278.47525      1503.7354     -2304.9568     -1945.5313    
    533500   292.46994      464.88265     -2302.7707     -1925.2825    
    534000   294.80051      1580.4256     -2277.5499     -1897.0536    
    534500   310.51778     -18.955635     -2350.3847     -1949.6022    
    535000   290.04795      1364.3116     -2287.6399     -1913.2777    
    535500   304.77912      449.68751     -2306.7867     -1913.4111    
    536000   284.46496      80.345293     -2310.4948     -1943.3385    
    536500   311.96265      438.5609      -2293.5478     -1890.9005    
    537000   312.27531      1388.7476     -2304.3012     -1901.2503    
    537500   300.99893      2761.9462     -2325.5607     -1937.0642    
    538000   309.39185      953.36433     -2306.9403     -1907.6111    
    538500   319.16232      1923.5407     -2278.798      -1866.8581    
    539000   296.80904      600.70894     -2313.244      -1930.1553    
    539500   291.07307      392.00468     -2320.0011     -1944.3158    
    540000   331.19925      518.94397     -2324.9774     -1897.5015    
    540500   316.8404       2090.4296     -2346.8098     -1937.8669    
    541000   289.75621      2133.7087     -2298.6709     -1924.6853    
    541500   301.83076      934.05384     -2289.0584     -1899.4883    
    542000   317.40793      546.12738     -2325.2588     -1915.5833    
    542500   289.14884      410.90102     -2329.3434     -1956.1416    
    543000   302.27311      1405.7809     -2297.8395     -1907.6984    
    543500   310.78113      2816.2086     -2302.5037     -1901.3814    
    544000   319.41888      1195.2976     -2353.351      -1941.08      
    544500   285.76784      1285.2739     -2287.6693     -1918.8314    
    545000   319.94023      1012.6296     -2303.2122     -1890.2683    
    545500   290.21808      896.53966     -2301.9441     -1927.3623    
    546000   289.62996      1242.4311     -2302.5594     -1928.7367    
    546500   316.07805      2108.2575     -2278.4277     -1870.4687    
    547000   303.11113     -158.31091     -2314.2827     -1923.06      
    547500   290.23477      227.71884     -2305.6226     -1931.0192    
    548000   307.71032      1410.3536     -2289.3886     -1892.2297    
    548500   301.44721      1317.3536     -2331.7425     -1942.6673    
    549000   303.63121      1410.8289     -2331.4187     -1939.5247    
    549500   308.46118      2067.7356     -2314.1088     -1915.9808    
    550000   289.91973     -491.59207     -2297.6669     -1923.4702    
    550500   297.36472      1096.4062     -2302.0686     -1918.2627    
    551000   278.35805      1540.3427     -2298.4677     -1939.1935    
    551500   301.51585      300.28343     -2327.728      -1938.5643    
    552000   306.93508      755.86297     -2287.4496     -1891.2913    
    552500   291.56189      1033.269      -2318.8584     -1942.5422    
    553000   286.64992     -12.850453     -2311.9543     -1941.9779    
    553500   308.06553      334.94967     -2303.8331     -1906.2158    
    554000   336.18019      2229.2805     -2290.0735     -1856.1688    
    554500   311.10324      2590.4002     -2312.7608     -1911.2228    
    555000   299.14044     -554.5426      -2335.561      -1949.4632    
    555500   304.15315      1050.7607     -2328.6327     -1936.0651    
    556000   333.03894      1077.6212     -2321.9486     -1892.0983    
    556500   285.99287     -322.39792     -2320.2028     -1951.0744    
    557000   307.08143      2975.19       -2322.8735     -1926.5264    
    557500   306.26147      700.19428     -2340.9005     -1945.6117    
    558000   287.02987      445.33454     -2335.1129     -1964.6461    
    558500   305.21192     -4.3028685     -2324.0492     -1930.115     
    559000   309.1599       1052.6162     -2327.5916     -1928.5618    
    559500   321.45891      629.44335     -2288.4848     -1873.5808    
    560000   301.78034      1465.687      -2299.0019     -1909.4968    
    560500   292.67631      643.75993     -2319.6969     -1941.9423    
    561000   302.80242      1985.0764     -2301.2121     -1910.3878    
    561500   331.84511      1562.5779     -2298.4017     -1870.0923    
    562000   301.1481      -720.85885     -2305.696      -1917.0069    
    562500   298.98527      1517.7977     -2318.8298     -1932.9323    
    563000   312.74427      570.33708     -2291.2007     -1887.5446    
    563500   321.41862      499.86169     -2317.8433     -1902.9912    
    564000   294.47647      1389.1635     -2314.744      -1934.6659    
    564500   294.41431      1186.9468     -2329.3229     -1949.3251    
    565000   311.24408      818.66311     -2347.5055     -1945.7857    
    565500   310.48798      467.95001     -2314.1797     -1913.4357    
    566000   294.86776      93.802222     -2319.3427     -1938.7596    
    566500   292.96165      331.3282      -2323.7669     -1945.644     
    567000   310.73066      1250.2946     -2310.2425     -1909.1853    
    567500   268.07067      59.386607     -2319.9481     -1973.9518    
    568000   297.04396      1225.9501     -2330.2359     -1946.844     
    568500   294.80673     -255.62201     -2297.5096     -1917.0053    
    569000   294.47135      1675.2191     -2325.5151     -1945.4436    
    569500   290.42352      816.0966      -2328.1735     -1953.3266    
    570000   320.47525      1236.2281     -2315.5324     -1901.898     
    570500   311.91124     -324.45005     -2305.1809     -1902.5999    
    571000   287.59281     -294.07648     -2333.7368     -1962.5434    
    571500   299.54805      365.88357     -2320.1002     -1933.4763    
    572000   280.27078     -455.35582     -2273.8109     -1912.068     
    572500   295.59317      633.43063     -2323.9998     -1942.4804    
    573000   274.72439      1483.6148     -2338.5272     -1983.943     
    573500   293.91975      1235.6115     -2320.8986     -1941.5391    
    574000   308.86676      1061.2635     -2315.6819     -1917.0305    
    574500   304.1821       758.84936     -2294.8066     -1902.2015    
    575000   307.63417      1956.8011     -2314.261      -1917.2005    
    575500   294.33916      1874.8547     -2337.2432     -1957.3423    
    576000   318.27798      2601.015      -2335.7636     -1924.9652    
    576500   316.72777     -475.35911     -2307.7344     -1898.9368    
    577000   287.56067     -616.31495     -2331.6845     -1960.5326    
    577500   293.886        1013.5099     -2309.7825     -1930.4665    
    578000   309.89752      1158.0008     -2301.1227     -1901.1408    
    578500   290.36735      2046.3645     -2288.2073     -1913.4328    
    579000   298.44719     -712.4553      -2317.0466     -1931.8436    
    579500   321.89157      562.30888     -2301.0667     -1885.6042    
    580000   300.17831      1951.3048     -2278.4276     -1890.9902    
    580500   289.87993      1158.5883     -2291.5031     -1917.3578    
    581000   280.60189      2179.3167     -2292.709      -1930.5387    
    581500   284.78816      2006.5491     -2333.3507     -1965.7772    
    582000   300.71905      758.97127     -2313.5092     -1925.3739    
    582500   291.73131      116.99874     -2299.5046     -1922.9697    
    583000   287.05994     -612.829       -2345.6412     -1975.1356    
    583500   288.35755      859.11915     -2322.8625     -1950.682     
    584000   304.81259      476.16037     -2330.2491     -1936.8303    
    584500   293.91386      1013.5586     -2330.1331     -1950.7812    
    585000   279.57393      1559.1603     -2317.2887     -1956.4452    
    585500   311.16565     -315.49626     -2311.9448     -1910.3262    
    586000   301.74349      1784.9947     -2330.1128     -1940.6553    
    586500   310.96195      1617.4685     -2354.0074     -1952.6516    
    587000   290.16927     -499.8158      -2290.7273     -1916.2085    
    587500   296.51754      88.600599     -2257.5293     -1874.8168    
    588000   327.10657     -464.85221     -2330.0361     -1907.8426    
    588500   279.80935      911.4227      -2307.3586     -1946.2113    
    589000   313.29355      282.66507     -2313.3521     -1908.987     
    589500   311.52293     -106.6         -2296.8951     -1894.8154    
    590000   291.25708     -186.09108     -2322.5834     -1946.6605    
    590500   292.10407      910.82948     -2317.1985     -1940.1825    
    591000   299.45687      1369.5934     -2304.0526     -1917.5464    
    591500   314.91419      705.06293     -2344.5887     -1938.1318    
    592000   272.65096      1113.3878     -2315.2841     -1963.376     
    592500   317.82774      201.71141     -2309.1109     -1898.8936    
    593000   313.79136     -154.68012     -2313.4055     -1908.3979    
    593500   291.92721      603.55416     -2320.835      -1944.0472    
    594000   291.00883      2143.3685     -2327.9716     -1952.3692    
    594500   283.8423       1677.92       -2318.957      -1952.6044    
    595000   308.05386      1038.5745     -2307.4673     -1909.865     
    595500   311.26161      135.04201     -2330.6624     -1928.9199    
    596000   291.67984     -99.736784     -2330.4007     -1953.9322    
    596500   308.54476      736.38855     -2304.4001     -1906.1642    
    597000   314.94352      2946.121      -2237.7043     -1831.2096    
    597500   302.88624      1296.7897     -2281.6832     -1890.7507    
    598000   288.14084      233.00014     -2311.2667     -1939.366     
    598500   294.65967      1245.069      -2299.5305     -1919.216     
    599000   320.24833      1314.9577     -2310.1225     -1896.7809    
    599500   293.74374      626.90615     -2324.7834     -1945.6511    
    600000   287.06972      461.47315     -2334.5383     -1964.02      
    600500   312.47746      338.09266     -2310.0569     -1906.7451    
    601000   303.68162      637.39223     -2320.1749     -1928.2158    
    601500   285.13993      1385.6539     -2325.0272     -1956.9998    
    602000   296.8221      -913.80873     -2321.5502     -1938.4447    
    602500   309.95489      1469.4754     -2328.4612     -1928.4053    
    603000   305.62914      751.78629     -2361.8069     -1967.3342    
    603500   303.48845      1165.5658     -2312.2188     -1920.5091    
    604000   312.13538      277.02291     -2309.5782     -1906.708     
    604500   309.11798      297.16131     -2352.5578     -1953.5821    
    605000   298.41766      777.6803      -2336.3778     -1951.2129    
    605500   302.21712      1693.4292     -2297.1395     -1907.0706    
    606000   298.11711      324.38913     -2288.069      -1903.292     
    606500   301.41114      3275.7172     -2317.0718     -1928.0432    
    607000   304.73173      1709.1242     -2325.2069     -1931.8925    
    607500   308.0068       166.73414     -2342.9305     -1945.389     
    608000   292.18019      1771.1822     -2356.8151     -1979.7008    
    608500   308.6439       1169.9592     -2340.242      -1941.8781    
    609000   308.61691      1569.2833     -2317.4996     -1919.1706    
    609500   320.24775      1234.8778     -2347.3254     -1933.9846    
    610000   290.22417      237.1597      -2332.1559     -1957.5662    
    610500   315.82009      1253.2046     -2314.0591     -1906.433     
    611000   317.70091      781.68338     -2332.2662     -1922.2126    
    611500   285.30954      1201.2636     -2305.6448     -1937.3984    
    612000   310.26087     -191.97669     -2312.6219     -1912.171     
    612500   313.49293      1047.1249     -2324.2383     -1919.6158    
    613000   297.53565      277.1896      -2349.682      -1965.6555    
    613500   312.48616      612.37031     -2325.9068     -1922.5838    
    614000   313.7103       315.95233     -2317.3645     -1912.4615    
    614500   290.60456     -198.24706     -2337.5996     -1962.519     
    615000   304.04209      154.84358     -2310.7549     -1918.3305    
    615500   304.55488      1726.3129     -2322.0896     -1929.0034    
    616000   298.46453      1651.2144     -2333.2064     -1947.9809    
    616500   303.37622      386.41362     -2310.5098     -1918.9449    
    617000   328.67399      1496.4823     -2308.49       -1884.2736    
    617500   302.95302      2307.0237     -2323.4051     -1932.3864    
    618000   300.78707      1629.7404     -2328.2086     -1939.9855    
    618500   293.68544      1080.8533     -2305.3779     -1926.3208    
    619000   313.23207      1538.3913     -2299.5319     -1895.2461    
    619500   299.65031      590.6871      -2333.092      -1946.3361    
    620000   292.24307      392.5982      -2297.2941     -1920.0987    
    620500   293.82362      1126.9961     -2287.109      -1907.8736    
    621000   311.17204      640.24978     -2342.7014     -1941.0745    
    621500   312.05079      723.97182     -2343.6737     -1940.9126    
    622000   301.12956      481.14609     -2305.3778     -1916.7127    
    622500   310.03377      63.046448     -2319.0351     -1918.8774    
    623000   296.29746      1738.7702     -2360.628      -1978.1997    
    623500   311.41895      1771.1313     -2324.1964     -1922.2509    
    624000   311.47946      3194.3469     -2316.5274     -1914.5038    
    624500   286.7681       167.09372     -2333.5042     -1963.3752    
    625000   315.93332      2180.9853     -2312.3534     -1904.5812    
    625500   306.24212      361.23995     -2321.3975     -1926.1336    
    626000   290.07283      475.62558     -2326.7928     -1952.3984    
    626500   310.87312      487.0179      -2320.8678     -1919.6268    
    627000   320.3071       498.64244     -2305.4757     -1892.0583    
    627500   291.85156      609.65623     -2327.4377     -1950.7476    
    628000   297.88255      832.34752     -2325.3293     -1940.855     
    628500   323.06441      187.3647      -2305.9659     -1888.9896    
    629000   310.59537      959.11785     -2308.8199     -1907.9374    
    629500   314.81339      1011.5794     -2333.0093     -1926.6825    
    630000   288.56855      422.98561     -2350.7386     -1978.2859    
    630500   298.80025      1296.4704     -2337.5777     -1951.919     
    631000   301.68171      1679.4409     -2310.7882     -1921.4104    
    631500   308.7729       1122.7462     -2298.7623     -1900.232     
    632000   287.73201     -613.94147     -2265.7497     -1894.3766    
    632500   282.49153     -109.93922     -2309.4481     -1944.8389    
    633000   307.13118      242.37069     -2326.1062     -1929.6948    
    633500   304.11987      1420.8185     -2319.3776     -1926.8529    
    634000   288.59838      921.0513      -2323.3787     -1950.8874    
    634500   289.59331      2227.8618     -2337.0831     -1963.3077    
    635000   311.59868      2173.7887     -2320.8962     -1918.7187    
    635500   297.52094      830.35084     -2310.9825     -1926.975     
    636000   294.9458      -1028.7958     -2356.7698     -1976.086     
    636500   292.39767      981.04707     -2328.7174     -1951.3224    
    637000   300.67381      1843.9783     -2317.1015     -1929.0246    
    637500   304.95327      1095.4192     -2306.2715     -1912.6712    
    638000   285.15044     -200.12821     -2274.5633     -1906.5222    
    638500   323.2864       761.91381     -2362.2043     -1944.9415    
    639000   284.92085      482.38034     -2299.2117     -1931.4669    
    639500   304.67085      1799.9927     -2280.5863     -1887.3504    
    640000   298.78421      2786.2616     -2287.2611     -1901.6231    
    640500   303.30761      588.29109     -2326.2107     -1934.7344    
    641000   304.85633      2031.8757     -2311.5022     -1918.0269    
    641500   315.47505      1589.8669     -2265.3835     -1858.2027    
    642000   302.39448      2673.8551     -2297.2518     -1906.9541    
    642500   301.70383     -1137.4113     -2334.2923     -1944.8859    
    643000   297.83621     -210.21645     -2313.7843     -1929.3699    
    643500   325.53392      1121.4206     -2300.5632     -1880.3996    
    644000   299.03232      671.74819     -2310.9032     -1924.945     
    644500   301.83038      3345.1548     -2317.1739     -1927.6042    
    645000   274.48266      508.22275     -2322.1835     -1967.9113    
    645500   297.55592      2011.9495     -2354.0675     -1970.0149    
    646000   314.37688      217.29757     -2326.8302     -1921.0668    
    646500   297.28077     -172.96973     -2301.4326     -1917.735     
    647000   304.25208      166.22122     -2348.9238     -1956.2284    
    647500   291.63791      790.99444     -2289.7462     -1913.3318    
    648000   312.81977      272.95184     -2317.2683     -1913.5147    
    648500   294.89529      1375.7358     -2330.2279     -1949.6093    
    649000   283.75153      296.68927     -2350.7544     -1984.5189    
    649500   301.96598      1552.1325     -2321.8075     -1932.0628    
    650000   314.63406      47.820427     -2320.6781     -1914.5828    
    650500   283.25661      1782.6286     -2341.7943     -1976.1976    
    651000   297.1396      -284.33915     -2328.3921     -1944.8768    
    651500   314.62097      795.37042     -2326.1841     -1920.1058    
    652000   278.85037      1295.5067     -2329.5866     -1969.677     
    652500   303.48534     -60.802629     -2355.4742     -1963.7684    
    653000   324.83583      1497.0875     -2345.745      -1926.4824    
    653500   293.45363      1530.0673     -2314.284      -1935.5261    
    654000   277.40849      442.16281     -2332.5801     -1974.5315    
    654500   299.39199      397.3081      -2357.2438     -1970.8213    
    655000   290.88975      886.57382     -2307.1439     -1931.6952    
    655500   304.08244     -350.64756     -2314.4759     -1921.9995    
    656000   299.8903       1736.3702     -2334.976      -1947.9103    
    656500   296.36067      1018.6895     -2330.3406     -1947.8306    
    657000   319.25339      788.19765     -2307.6373     -1895.5799    
    657500   294.71626     -755.27139     -2309.3063     -1928.9187    
    658000   302.40365     -1658.1542     -2333.1248     -1942.8152    
    658500   300.53065     -309.72549     -2297.6448     -1909.7527    
    659000   310.88081      576.97545     -2300.6789     -1899.4279    
    659500   315.4546       514.22646     -2340.3808     -1933.2264    
    660000   296.46117      2146.2546     -2297.7        -1915.0603    
    660500   297.36602      512.33242     -2273.6751     -1889.8675    
    661000   315.56742     -1611.8444     -2330.4508     -1923.1509    
    661500   277.71565      423.50072     -2341.2259     -1982.7809    
    662000   314.29073     -41.45763      -2344.716      -1939.0639    
    662500   313.38264      3219.8024     -2327.5137     -1923.0336    
    663000   273.11284     -498.33101     -2331.0006     -1978.4964    
    663500   301.25456      1198.2863     -2336.6811     -1947.8547    
    664000   310.56165      692.80232     -2324.2019     -1923.3628    
    664500   317.36482      1705.6332     -2270.2819     -1860.6621    
    665000   311.10283      217.54899     -2295.6353     -1894.0978    
    665500   300.03207      730.72091     -2319.5867     -1932.3381    
    666000   283.08004     -375.63541     -2311.7667     -1946.398     
    666500   298.2493       31.292788     -2321.7009     -1936.7532    
    667000   314.75755      398.03494     -2335.2919     -1929.0372    
    667500   306.01971      2662.5151     -2330.0537     -1935.0769    
    668000   284.44106     -1.7262092     -2334.7676     -1967.6422    
    668500   295.7393       1489.2244     -2314.1653     -1932.4573    
    669000   300.70459      1384.2796     -2292.7191     -1904.6024    
    669500   294.93074      381.79996     -2337.7184     -1957.054     
    670000   287.77611      2142.8048     -2328.518      -1957.0881    
    670500   304.04133      1584.3279     -2314.9443     -1922.521     
    671000   295.47841      2094.1097     -2281.7711     -1900.3999    
    671500   291.2703       825.4047      -2338.2435     -1962.3036    
    672000   304.57977      390.57451     -2317.641      -1924.5227    
    672500   300.24791      523.90749     -2306.1822     -1918.655     
    673000   308.11564     -229.97354     -2333.1986     -1935.5166    
    673500   302.63425      1233.7888     -2313.2344     -1922.6272    
    674000   300.43119      1343.8903     -2264.5819     -1876.8182    
    674500   299.06416      549.99748     -2319.5672     -1933.5679    
    675000   295.32508      1269.815      -2313.4797     -1932.3063    
    675500   302.00645      1346.1022     -2278.2516     -1888.4547    
    676000   299.12857     -622.18222     -2325.6438     -1939.5613    
    676500   286.29206     -172.34309     -2296.5774     -1927.0628    
    677000   319.1446       1108.4222     -2304.6671     -1892.7502    
    677500   294.03689      1916.5513     -2311.3386     -1931.8279    
    678000   293.2956       1469.6199     -2308.6195     -1930.0656    
    678500   308.65797      368.22691     -2284.4553     -1886.0733    
    679000   300.58592      1063.1579     -2327.7181     -1939.7546    
    679500   320.7334       194.0678      -2343.1842     -1929.2166    
    680000   314.18332      394.81501     -2275.6676     -1870.1541    
    680500   318.23444      380.65036     -2312.345      -1901.6027    
    681000   290.6557      -654.0489      -2317.9783     -1942.8316    
    681500   301.15875     -400.6941      -2315.8944     -1927.1915    
    682000   324.35139     -85.908098     -2304.259      -1885.6217    
    682500   286.14025     -1135.1805     -2286.5514     -1917.2328    
    683000   298.02288      621.65944     -2291.6722     -1907.0168    
    683500   310.12665      102.24143     -2305.3046     -1905.027     
    684000   300.7282       1424.7924     -2308.4747     -1920.3276    
    684500   309.52881     -201.25483     -2300.5128     -1901.0069    
    685000   306.17154     -683.67685     -2277.6545     -1882.4817    
    685500   307.91436     -535.7983      -2334.051      -1936.6288    
    686000   297.87189      1092.7578     -2315.2463     -1930.7858    
    686500   315.86682      1469.9202     -2288.1009     -1880.4145    
    687000   303.60824      1680.0309     -2319.9953     -1928.1309    
    687500   286.25995      1371.1354     -2300.139      -1930.6659    
    688000   308.6124      -696.72818     -2297.0406     -1898.7174    
    688500   293.03981      160.30319     -2331.1943     -1952.9706    
    689000   300.96792      1384.6209     -2324.4301     -1935.9736    
    689500   310.92459      984.98129     -2283.1818     -1881.8743    
    690000   304.95178      450.83472     -2309.2082     -1915.6098    
    690500   294.5145       2191.7806     -2321.5184     -1941.3912    
    691000   320.08437      2004.302      -2308.9853     -1895.8553    
    691500   309.43673      383.60061     -2328.4166     -1929.0294    
    692000   296.78105      1421.0628     -2330.1158     -1947.0632    
    692500   314.05516      1346.1545     -2316.9701     -1911.622     
    693000   316.06281      810.35218     -2322.515      -1914.5757    
    693500   291.75632      1748.2656     -2336.7014     -1960.1342    
    694000   300.58078      937.74507     -2298.3955     -1910.4387    
    694500   298.09718      914.21363     -2316.1056     -1931.3543    
    695000   296.99242      335.04936     -2347.8994     -1964.574     
    695500   277.94187     -111.48266     -2323.9358     -1965.1988    
    696000   310.7716      -720.7311      -2316.7855     -1915.6755    
    696500   313.64873      1958.9428     -2305.6579     -1900.8343    
    697000   298.73119      16.485735     -2291.6137     -1906.0441    
    697500   303.22545      71.591981     -2336.233      -1944.8627    
    698000   272.21914      23.588411     -2338.3751     -1987.0244    
    698500   306.06958      870.26337     -2348.9572     -1953.9161    
    699000   309.2728       158.70397     -2319.9084     -1920.7328    
    699500   319.44682      1205.9282     -2290.293      -1877.986     
    700000   307.27009      458.99971     -2325.322      -1928.7313    
    700500   290.99693     -141.85659     -2317.654      -1942.0669    
    701000   315.87257      1128.5399     -2299.4368     -1891.743     
    701500   308.5927       1366.0102     -2305.3018     -1907.004     
    702000   299.13474      1665.7537     -2306.2017     -1920.1112    
    702500   281.07035      2820.8923     -2314.8373     -1952.0624    
    703000   293.45639      1320.7584     -2354.2039     -1975.4425    
    703500   317.69159     -545.92887     -2342.654      -1932.6124    
    704000   295.59913      2865.0798     -2313.2635     -1931.7365    
    704500   300.35502      439.56012     -2289.3793     -1901.7138    
    705000   308.75593      1081.6841     -2345.4863     -1946.9779    
    705500   286.18404      1207.7172     -2327.5398     -1958.1647    
    706000   312.89709      954.14631     -2329.3563     -1925.5029    
    706500   304.13721      1137.6678     -2339.5065     -1946.9594    
    707000   281.20431      589.59619     -2348.6988     -1985.751     
    707500   290.14753      577.0649      -2314.3047     -1939.814     
    708000   305.29594      2336.4765     -2310.0213     -1915.9787    
    708500   283.41274      1384.0469     -2327.0745     -1961.2763    
    709000   286.15079      1128.3287     -2338.6377     -1969.3055    
    709500   303.32307     -134.00612     -2317.4545     -1925.9582    
    710000   308.14605      787.76153     -2318.7781     -1921.0568    
    710500   287.50542      1189.7302     -2317.0883     -1946.0077    
    711000   281.3399       376.70527     -2328.8398     -1965.717     
    711500   296.80067      1264.555      -2293.5262     -1910.4483    
    712000   293.95155      1681.8248     -2301.0656     -1921.6651    
    712500   292.54024      209.91511     -2342.7797     -1965.2007    
    713000   294.01656      1247.5759     -2286.0778     -1906.5933    
    713500   289.6389       1454.7444     -2298.4728     -1924.6386    
    714000   287.30506      165.85987     -2324.5564     -1953.7344    
    714500   302.66936      1281.3135     -2327.3276     -1936.675     
    715000   295.21621      466.69455     -2304.2695     -1923.2367    
    715500   291.55472      1810.3458     -2345.0358     -1968.7288    
    716000   304.4013       1302.8733     -2309.1525     -1916.2645    
    716500   298.74693      635.35084     -2307.5764     -1921.9865    
    717000   283.36745      72.638655     -2334.3563     -1968.6166    
    717500   288.24652      896.69948     -2305.2952     -1933.2581    
    718000   304.42699      1697.3523     -2312.1961     -1919.275     
    718500   286.18721      920.2346      -2315.2942     -1945.915     
    719000   290.87036      725.05984     -2321.7074     -1946.2837    
    719500   313.72162      1544.1489     -2318.2193     -1913.3017    
    720000   302.23207      357.07388     -2344.1897     -1954.1015    
    720500   284.96546      2904.5093     -2319.871      -1952.0687    
    721000   292.19066      3031.3958     -2298.3434     -1921.2156    
    721500   298.44146      696.24839     -2297.2982     -1912.1026    
    722000   316.09148      905.33228     -2281.2874     -1873.311     
    722500   302.90693      1550.802      -2295.7286     -1904.7694    
    723000   303.26016      1238.0068     -2332.3147     -1940.8996    
    723500   287.3067       781.38703     -2344.1359     -1973.3118    
    724000   312.43086      765.8048      -2313.6925     -1910.4409    
    724500   293.63581     -91.428272     -2313.2783     -1934.2853    
    725000   304.01943      1190.8103     -2323.0386     -1930.6435    
    725500   318.18963     -362.7084      -2306.1098     -1895.4254    
    726000   286.5755       684.07236     -2308.761      -1938.8806    
    726500   305.71775      1366.1258     -2317.8468     -1923.2598    
    727000   315.19364     -3.9950053     -2286.6513     -1879.8337    
    727500   305.0805       838.34212     -2322.4379     -1928.6733    
    728000   298.81739      1590.3399     -2300.1659     -1914.485     
    728500   319.60563      451.68479     -2258.0855     -1845.5735    
    729000   299.38848     -619.95045     -2279.9549     -1893.5369    
    729500   307.86065      43.160703     -2326.5059     -1929.153     
    730000   273.71404      1369.1314     -2307.7217     -1954.4415    
    730500   306.79584      964.57477     -2295.4872     -1899.5087    
    731000   295.27993      497.40323     -2298.2735     -1917.1584    
    731500   301.85322      634.0555      -2316.2513     -1926.6521    
    732000   297.33307      1002.2886     -2269.5919     -1885.8268    
    732500   289.56547      1064.7114     -2315.8119     -1942.0725    
    733000   300.37122      2061.842      -2319.0821     -1931.3958    
    733500   307.0312       816.27731     -2271.9825     -1875.7001    
    734000   304.30415     -1210.4425     -2301.6164     -1908.8539    
    734500   293.12522      882.30959     -2310.5366     -1932.2026    
    735000   300.47749      819.81204     -2360.3124     -1972.4889    
    735500   304.21267      691.90194     -2317.8969     -1925.2524    
    736000   295.65388      1287.7148     -2300.3918     -1918.794     
    736500   311.03478      1515.9895     -2359.8399     -1958.3901    
    737000   290.86244      1910.257      -2330.6893     -1955.2759    
    737500   293.47924      145.58331     -2294.6532     -1915.8623    
    738000   283.70284      1708.6677     -2286.2021     -1920.0294    
    738500   282.60971      499.54105     -2328.9256     -1964.1638    
    739000   320.11571      916.78847     -2317.6223     -1904.4519    
    739500   301.30754      2407.3909     -2318.6731     -1929.7783    
    740000   290.09105      1169.0903     -2329.9861     -1955.5683    
    740500   324.85054      156.11724     -2308.569      -1889.2874    
    741000   293.23731      407.72715     -2296.5285     -1918.0498    
    741500   280.26875     -715.43621     -2306.2497     -1944.5094    
    742000   316.26042      1499.8562     -2293.6921     -1885.4977    
    742500   312.50935      519.87841     -2329.4853     -1926.1324    
    743000   294.8906       1756.1264     -2316.617      -1936.0045    
    743500   300.45832      1846.1572     -2297.4908     -1909.692     
    744000   336.31574      868.71765     -2310.8838     -1876.8042    
    744500   306.16813      1114.456      -2331.0052     -1935.8369    
    745000   310.38746      1394.4929     -2316.2628     -1915.6485    
    745500   300.60146      1191.9454     -2281.5467     -1893.5632    
    746000   300.40627      1606.6153     -2332.1409     -1944.4093    
    746500   306.44405      151.8026      -2329.4101     -1933.8856    
    747000   298.61485      2390.4213     -2285.8993     -1900.4798    
    747500   315.75092      547.45226     -2262.3422     -1854.8054    
    748000   298.45197      146.95195     -2301.5067     -1916.2975    
    748500   311.81112      1670.4039     -2323.9374     -1921.4856    
    749000   265.39117      1489.5551     -2310.2781     -1967.7401    
    749500   289.84085      735.99928     -2300.1426     -1926.0477    
    750000   304.28546     -92.948986     -2307.3014     -1914.563     
    750500   297.93374      2831.7942     -2326.5666     -1942.0263    
    751000   305.40947     -663.45269     -2336.7075     -1942.5183    
    751500   312.6406       988.41557     -2316.6346     -1913.1123    
    752000   300.86519      1111.8181     -2322.4987     -1934.1747    
    752500   293.37585      1736.0276     -2353.8845     -1975.227     
    753000   297.19324     -2.523729      -2328.1229     -1944.5383    
    753500   304.28302     -404.75605     -2325.0527     -1932.3174    
    754000   293.0902      -16.1886       -2339.8024     -1961.5136    
    754500   307.95175      2506.853      -2313.4672     -1915.9967    
    755000   294.7323       1803.3145     -2313.8352     -1933.4269    
    755500   284.13432      371.90399     -2336.0597     -1969.3302    
    756000   313.01046      2305.3966     -2307.2149     -1903.2152    
    756500   289.13275      1553.1129     -2305.7808     -1932.5998    
    757000   314.44566     -304.93826     -2318.2353     -1912.3832    
    757500   302.47994      687.25953     -2288.9734     -1898.5654    
    758000   296.59253      898.51863     -2313.8626     -1931.0534    
    758500   281.0882       928.09172     -2355.6571     -1992.8592    
    759000   289.89241      2771.3834     -2327.6408     -1953.4794    
    759500   297.20531      1273.8451     -2307.9952     -1924.3951    
    760000   304.87731      1567.0902     -2301.3923     -1907.89      
    760500   323.92731      2386.617      -2304.5359     -1886.446     
    761000   312.77939      11.819276     -2344.4575     -1940.7561    
    761500   294.16594      1284.4344     -2320.7535     -1941.0762    
    762000   310.67876      801.17156     -2279.4654     -1878.4752    
    762500   292.55612      2726.526      -2292.7545     -1915.155     
    763000   294.47056      514.60704     -2314.8186     -1934.7481    
    763500   294.17432      2198.4057     -2342.3174     -1962.6294    
    764000   288.29579      1397.1825     -2304.3742     -1932.2735    
    764500   297.32694     -425.88571     -2290.3819     -1906.6248    
    765000   291.62668      1022.393      -2335.4926     -1959.0928    
    765500   297.44038      628.584       -2342.6435     -1958.7399    
    766000   299.41103      1492.0584     -2292.7221     -1906.275     
    766500   288.39622      835.17598     -2285.0534     -1912.8231    
    767000   298.342        475.5046      -2344.3511     -1959.2838    
    767500   304.28326     -246.73667     -2339.7388     -1947.0032    
    768000   316.21105      835.00388     -2297.8268     -1889.6961    
    768500   286.65607      1395.3182     -2309.0002     -1939.0159    
    769000   297.05391     -639.32411     -2316.3579     -1932.9532    
    769500   313.8596       2459.826      -2276.1892     -1871.0935    
    770000   301.60388      1152.0054     -2318.0196     -1928.7423    
    770500   289.82467      2386.2822     -2309.4396     -1935.3656    
    771000   301.63434     -860.324       -2292.5857     -1903.2691    
    771500   301.76028      451.67144     -2326.755      -1937.2758    
    772000   291.73692      356.79688     -2324.899      -1948.3568    
    772500   310.19615      1344.9065     -2314.9609     -1914.5936    
    773000   275.61964      184.20271     -2330.5692     -1974.8295    
    773500   298.30039      1857.4988     -2323.3651     -1938.3515    
    774000   303.30108      3175.1008     -2313.3421     -1921.8742    
    774500   294.73229      615.47423     -2267.0701     -1886.6618    
    775000   315.07955      1092.3998     -2292.9885     -1886.3183    
    775500   316.33488      235.97413     -2331.1972     -1922.9067    
    776000   293.09814      549.80663     -2321.8088     -1943.5097    
    776500   284.60902      1222.7311     -2299.8518     -1932.5096    
    777000   296.04971      944.38189     -2281.7029     -1899.5943    
    777500   285.85424      717.00828     -2310.8943     -1941.9449    
    778000   305.09363      489.72264     -2346.2953     -1952.5138    
    778500   308.4168       614.1223      -2297.2464     -1899.1757    
    779000   299.28449      687.27311     -2313.4573     -1927.1735    
    779500   284.29052      460.32524     -2353.9994     -1987.0682    
    780000   297.5009       907.07265     -2335.3485     -1951.3668    
    780500   300.32652      1415.2892     -2313.4377     -1925.809     
    781000   301.06854     -905.3         -2315.9685     -1927.3821    
    781500   300.84463      2154.2443     -2318.6077     -1930.3103    
    782000   303.76558      340.23465     -2313.1406     -1921.0731    
    782500   308.35935      2025.4089     -2313.495      -1915.4984    
    783000   289.04791     -290.77009     -2329.1493     -1956.0778    
    783500   294.26403      3098.1705     -2281.8799     -1902.076     
    784000   298.22093      1247.1587     -2296.4526     -1911.5416    
    784500   296.44768      908.09396     -2350.0034     -1967.3811    
    785000   292.39287      705.8819      -2349.1568     -1971.768     
    785500   298.1217       595.29326     -2310.9184     -1926.1355    
    786000   302.90621      1465.1203     -2309.118      -1918.1598    
    786500   279.42142      177.21875     -2324.26       -1963.6134    
    787000   293.78428     -286.80481     -2360.4973     -1981.3126    
    787500   282.04823      490.78875     -2299.8441     -1935.8071    
    788000   301.95616      995.46819     -2299.4433     -1909.7112    
    788500   311.70199      383.27865     -2299.9324     -1897.6215    
    789000   286.05773      1435.174      -2318.4178     -1949.2057    
    789500   289.21337      1020.8297     -2319.0216     -1945.7366    
    790000   317.30454      1844.8889     -2313.6706     -1904.1286    
    790500   294.84408      745.98162     -2325.0631     -1944.5106    
    791000   283.78578      63.227484     -2300.6056     -1934.3259    
    791500   325.94386      2331.965      -2307.909      -1887.2162    
    792000   291.43639      1429.2443     -2316.9483     -1940.794     
    792500   279.03857     -79.8544       -2303.8935     -1943.741     
    793000   297.65118      1257.3607     -2275.6924     -1891.5168    
    793500   302.58285      1352.1558     -2314.6502     -1924.1093    
    794000   286.90519      1263.1042     -2340.4845     -1970.1787    
    794500   280.77732      282.9978      -2362.8314     -2000.4347    
    795000   284.16891      234.24653     -2306.9198     -1940.1457    
    795500   298.00048      726.90506     -2291.0795     -1906.453     
    796000   288.30228      397.15379     -2315.9227     -1943.8136    
    796500   291.08642     -562.52303     -2318.4536     -1942.7511    
    797000   300.26243      2294.8624     -2311.2776     -1923.7316    
    797500   306.24084      1370.5859     -2311.689      -1916.4267    
    798000   310.35859      873.30033     -2279.5701     -1878.9932    
    798500   308.07182      1765.9824     -2313.471      -1915.8456    
    799000   301.91615     -391.36657     -2340.6163     -1950.9359    
    799500   313.19118      1388.5969     -2316.8822     -1912.6492    
    800000   292.19198      1717.3714     -2276.8622     -1899.7327    
    800500   282.75907      614.09588     -2316.7071     -1951.7526    
    801000   300.32554     -34.987745     -2330.0096     -1942.3822    
    801500   292.70707      1183.5094     -2308.1373     -1930.343     
    802000   305.74593      736.21407     -2314.3949     -1919.7714    
    802500   292.51585      1139.7403     -2303.3372     -1925.7897    
    803000   296.80012      1473.4568     -2341.8414     -1958.7642    
    803500   283.33825      756.68596     -2334.7894     -1969.0874    
    804000   290.09102      3443.9956     -2290.9307     -1916.5129    
    804500   304.04324     -129.49669     -2314.0607     -1921.6349    
    805000   277.52674     -116.90421     -2323.5282     -1965.327     
    805500   314.23003      590.67821     -2312.6186     -1907.0449    
    806000   303.43244     -889.52587     -2323.0138     -1931.3763    
    806500   287.74102      945.13507     -2308.3064     -1936.9217    
    807000   308.82851      1209.7467     -2293.075      -1894.4729    
    807500   285.61941      4.2980931     -2320.273      -1951.6267    
    808000   301.8678       790.12285     -2329.4532     -1939.8353    
    808500   311.85699      1293.0319     -2325.9554     -1923.4445    
    809000   285.59661      145.63196     -2340.0343     -1971.4174    
    809500   301.42         576.60643     -2314.685      -1925.645     
    810000   312.57701      2674.4293     -2321.9884     -1918.5482    
    810500   303.24238      735.11547     -2336.3887     -1944.9966    
    811000   326.6882       982.28698     -2309.3235     -1887.67      
    811500   294.16012      984.98488     -2298.395      -1918.7252    
    812000   299.81295      326.09753     -2326.1416     -1939.1758    
    812500   305.49878      983.60296     -2313.7911     -1919.4867    
    813000   311.28516      330.64774     -2280.5278     -1878.755     
    813500   306.90821      1271.6917     -2329.1757     -1933.0521    
    814000   299.87826      1774.4375     -2327.2935     -1940.2434    
    814500   306.66026      943.28253     -2315.3012     -1919.4976    
    815000   297.26075      1768.8507     -2282.4949     -1898.8232    
    815500   307.75831     -509.93967     -2316.8509     -1919.6301    
    816000   291.4648       1525.1255     -2334.2285     -1958.0375    
    816500   315.86761     -321.95582     -2321.7516     -1914.0642    
    817000   295.09276      547.91202     -2301.8532     -1920.9797    
    817500   300.51735      902.1986      -2334.9372     -1947.0623    
    818000   305.33805      842.36221     -2362.8589     -1968.762     
    818500   302.85869     -558.19589     -2303.7687     -1912.8718    
    819000   319.8294       1660.9391     -2316.58       -1903.7791    
    819500   305.67522     -769.58376     -2356.7613     -1962.2291    
    820000   306.93098      796.73121     -2332.9562     -1936.8032    
    820500   314.96618      1461.8351     -2306.6753     -1900.1514    
    821000   319.1269       1707.6647     -2327.4501     -1915.556     
    821500   292.16679      323.87431     -2325.7283     -1948.6314    
    822000   322.95853      1918.2147     -2312.7179     -1895.8783    
    822500   328.2813      -1256.2724     -2341.5569     -1917.8473    
    823000   301.97169      853.23287     -2342.0107     -1952.2586    
    823500   326.90368      2277.6485     -2338.5533     -1916.6217    
    824000   308.90152      1098.478      -2267.9628     -1869.2665    
    824500   304.28844      97.141924     -2315.9606     -1923.2183    
    825000   310.36155      239.60566     -2335.0251     -1934.4444    
    825500   327.79007      1213.7688     -2300.9367     -1877.8611    
    826000   303.09014      635.53962     -2303.7143     -1912.5186    
    826500   309.19189      311.86301     -2336.6272     -1937.5561    
    827000   282.40772      2241.7537     -2335.6656     -1971.1646    
    827500   289.13793      1105.375      -2358.3846     -1985.1969    
    828000   307.13241      478.15259     -2325.4012     -1928.9883    
    828500   309.51217      953.2166      -2306.855      -1907.3705    
    829000   301.05726      2321.1699     -2344.3655     -1955.7937    
    829500   287.4149      -332.39515     -2326.5421     -1955.5784    
    830000   292.24421      1445.5649     -2292.5608     -1915.3639    
    830500   300.01792      1093.1882     -2306.6915     -1919.4611    
    831000   284.84105      1588.7769     -2334.4739     -1966.8322    
    831500   293.10275      2020.1727     -2296.1083     -1917.8033    
    832000   304.44577      950.96089     -2296.2746     -1903.3293    
    832500   286.81559      85.988851     -2321.1391     -1950.9489    
    833000   302.88433      398.49291     -2324.6698     -1933.7398    
    833500   307.18751      1709.2664     -2322.6163     -1926.1323    
    834000   287.0057       314.28341     -2318.9789     -1948.5433    
    834500   281.07617     -759.68067     -2341.665      -1978.8826    
    835000   308.63681     -333.12427     -2315.1523     -1916.7976    
    835500   307.9636       935.85909     -2321.3965     -1923.9107    
    836000   305.71189      1165.5677     -2363.122      -1968.5425    
    836500   287.99581      990.74359     -2326.5736     -1954.8601    
    837000   305.47069      1278.0071     -2329.9433     -1935.6751    
    837500   316.09847      1238.4979     -2293.1537     -1885.1683    
    838000   294.2502       720.25408     -2281.9039     -1902.1179    
    838500   313.14071      1042.1712     -2334.9555     -1930.7876    
    839000   293.26468      1309.3774     -2324.3488     -1945.8348    
    839500   304.27353      989.98057     -2278.0255     -1885.3024    
    840000   281.02858      2655.7186     -2297.2324     -1934.5114    
    840500   292.66596     -871.50337     -2300.4864     -1922.7452    
    841000   300.56804      2311.0295     -2291.3013     -1903.3609    
    841500   300.52862      468.15162     -2315.2319     -1927.3424    
    842000   307.48442     -333.28358     -2320.89       -1924.0227    
    842500   327.8291       551.4179      -2305.9509     -1882.8249    
    843000   291.15459      1620.4096     -2307.9499     -1932.1593    
    843500   308.51137     -66.736163     -2336.0822     -1937.8894    
    844000   293.76874      1553.3206     -2326.4776     -1947.313     
    844500   281.50228     -43.581031     -2324.7879     -1961.4555    
    845000   305.38904      1309.038      -2298.7272     -1904.5644    
    845500   299.54453      2030.2152     -2315.7816     -1929.1623    
    846000   289.42756      1745.7711     -2343.7313     -1970.1698    
    846500   287.75982      1878.5564     -2286.8856     -1915.4766    
    847000   315.34696      3035.3018     -2308.1891     -1901.1736    
    847500   297.67556      827.51893     -2331.2365     -1947.0294    
    848000   300.96039      1002.4556     -2318.5141     -1930.0674    
    848500   297.48099      1078.0311     -2248.9834     -1865.0275    
    849000   309.27155      1533.6358     -2303.9854     -1904.8115    
    849500   295.72763      92.249389     -2314.475      -1932.7821    
    850000   330.89659      1666.7153     -2322.0528     -1894.9676    
    850500   303.97451      1349.1397     -2288.6892     -1896.3521    
    851000   324.77712      786.9365      -2339.4261     -1920.2393    
    851500   299.51992     -309.31665     -2313.3965     -1926.8089    
    852000   317.03404     -215.85699     -2343.3763     -1934.1834    
    852500   297.10774      919.60888     -2328.7541     -1945.2799    
    853000   315.26405      1772.7503     -2335.794      -1928.8856    
    853500   296.97725      2021.4147     -2293.9292     -1910.6234    
    854000   281.29833      683.64714     -2320.9323     -1957.8632    
    854500   309.34769      1460.7413     -2320.7017     -1921.4295    
    855000   327.84466      211.72657     -2304.8743     -1881.7282    
    855500   295.68142      1253.5314     -2304.3003     -1922.667     
    856000   293.74794      1141.4651     -2320.5331     -1941.3953    
    856500   284.88068     -60.159133     -2335.464      -1967.7711    
    857000   318.23785     -828.27221     -2333.2097     -1922.463     
    857500   307.37643     -462.79119     -2317.8693     -1921.1414    
    858000   306.88076      2090.2887     -2370.3942     -1974.306     
    858500   303.27587      1542.6847     -2322.837      -1931.4016    
    859000   308.97227      817.4289      -2323.4607     -1924.6731    
    859500   297.65078      1227.0341     -2350.4041     -1966.229     
    860000   290.77854      452.18804     -2337.786      -1962.4808    
    860500   304.00511     -417.26715     -2329.405      -1937.0285    
    861000   290.08301      944.57133     -2285.4806     -1911.0732    
    861500   281.60804      987.98307     -2327.0234     -1963.5545    
    862000   297.13462      1500.4698     -2315.7356     -1932.2267    
    862500   298.57838      722.58776     -2301.9154     -1916.543     
    863000   310.73611      1664.3192     -2311.1291     -1910.0649    
    863500   308.10957      1503.0962     -2361.6261     -1963.9519    
    864000   299.08004      1790.8385     -2318.7496     -1932.7298    
    864500   315.71573      263.80624     -2316.972      -1909.4807    
    865000   297.92444      2776.319      -2352.1011     -1967.5728    
    865500   288.30701      734.198       -2336.658      -1964.5428    
    866000   304.3258       341.05516     -2306.6603     -1913.8698    
    866500   295.10396      969.81432     -2308.5774     -1927.6894    
    867000   290.73361      128.04913     -2332.4738     -1957.2266    
    867500   307.05956      1029.0115     -2289.9876     -1893.6686    
    868000   291.18487      1018.0142     -2318.1239     -1942.2942    
    868500   290.79735      962.49722     -2331.4177     -1956.0883    
    869000   299.76998      1477.5199     -2298.2851     -1911.3748    
    869500   299.24078     -341.93841     -2321.3776     -1935.1503    
    870000   284.39564      111.53728     -2319.2906     -1952.2237    
    870500   311.23678      761.98741     -2324.7997     -1923.0892    
    871000   315.12867      224.09493     -2336.9034     -1930.1697    
    871500   278.1805       749.0043      -2319.652      -1960.607     
    872000   295.22688      1881.415      -2339.4585     -1958.4119    
    872500   290.39006      1362.8073     -2301.0475     -1926.2438    
    873000   278.28849      308.33219     -2314.76       -1955.5756    
    873500   302.41601      1462.2748     -2295.712      -1905.3864    
    874000   306.52019      933.75116     -2295.6244     -1900.0016    
    874500   301.42767      2452.304      -2338.185      -1949.1351    
    875000   301.32732      1154.3034     -2329.4605     -1940.5401    
    875500   287.78523      424.92888     -2296.135      -1924.6933    
    876000   307.75701      1114.8613     -2328.0504     -1930.8313    
    876500   283.32524     -246.72731     -2339.1255     -1973.4402    
    877000   308.06581      1400.3667     -2322.2568     -1924.6391    
    877500   294.94124      1929.2306     -2280.0605     -1899.3825    
    878000   297.81944      1514.4472     -2336.5699     -1952.1771    
    878500   290.14762      1080.9425     -2331.9953     -1957.5045    
    879000   294.49953      1503.28       -2281.6545     -1901.5466    
    879500   313.56473      393.82801     -2308.306      -1903.5909    
    880000   305.52611      2168.8975     -2345.9033     -1951.5636    
    880500   292.22076     -5.7603848     -2318.7675     -1941.6008    
    881000   308.25179      912.17391     -2315.5964     -1917.7387    
    881500   296.17621      220.03748     -2340.6695     -1958.3976    
    882000   293.29421      1989.8617     -2330.2028     -1951.6507    
    882500   296.87027      953.73141     -2303.5041     -1920.3364    
    883000   315.60639      1623.4205     -2335.7166     -1928.3663    
    883500   295.40358      422.96483     -2274.1209     -1892.8462    
    884000   295.66542      191.64523     -2308.2461     -1926.6335    
    884500   303.8443       989.94248     -2336.7755     -1944.6065    
    885000   309.81303      688.8289      -2300.0732     -1900.2004    
    885500   311.47192      546.29801     -2306.109      -1904.0951    
    886000   282.13919      1266.628      -2309.3025     -1945.1481    
    886500   307.46052      231.67106     -2331.4406     -1934.6041    
    887000   306.51485      906.28559     -2299.6979     -1904.082     
    887500   290.37449     -635.58081     -2321.8705     -1947.0868    
    888000   288.41803     -149.37184     -2314.5061     -1942.2476    
    888500   308.92439      1750.5674     -2301.8997     -1903.1739    
    889000   296.50534     -353.72778     -2297.8939     -1915.1972    
    889500   298.61041     -52.564799     -2346.4563     -1961.0426    
    890000   308.2661       2029.1068     -2307.7343     -1909.8581    
    890500   320.41258      971.40915     -2334.5587     -1921.0051    
    891000   289.81418      1949.5561     -2334.0902     -1960.0297    
    891500   310.20199      548.46317     -2318.1379     -1917.763     
    892000   301.33681      1012.1323     -2311.6037     -1922.671     
    892500   291.52489      1852.4976     -2332.0418     -1955.7733    
    893000   292.62805      317.59137     -2282.5012     -1904.8088    
    893500   324.10362      1549.12       -2338.8154     -1920.4979    
    894000   283.78925     -135.00256     -2325.2171     -1958.933     
    894500   290.58411      153.92664     -2356.6141     -1981.5599    
    895000   292.49161      1403.4396     -2309.3111     -1931.7949    
    895500   320.90005      394.59035     -2321.347      -1907.1643    
    896000   282.3959       1159.2633     -2323.1316     -1958.6458    
    896500   318.05515      458.38719     -2345.3154     -1934.8046    
    897000   300.28895     -351.906       -2332.4684     -1944.8882    
    897500   293.51328      1405.0706     -2336.8027     -1957.9678    
    898000   299.89207      1244.6205     -2300.4308     -1913.3628    
    898500   304.32352      531.7157      -2325.7859     -1932.9984    
    899000   299.78635      423.82691     -2327.4591     -1940.5276    
    899500   314.50114      2493.608      -2290.1696     -1884.2459    
    900000   318.9718       87.373437     -2325.2609     -1913.567     
    900500   309.8496       775.1707      -2332.3393     -1932.4192    
    901000   313.99898      210.54532     -2287.9933     -1882.7177    
    901500   313.07674      905.63999     -2310.9238     -1906.8386    
    902000   298.47392      1335.9809     -2314.7249     -1929.4874    
    902500   313.9422      -459.504       -2310.0435     -1904.8412    
    903000   305.63976      943.85809     -2286.6545     -1892.1681    
    903500   297.05903      88.172876     -2316.8466     -1933.4353    
    904000   302.94898      498.89478     -2308.602      -1917.5885    
    904500   305.49873      1426.5838     -2266.8705     -1872.5661    
    905000   300.27982      1650.1584     -2315.6241     -1928.0557    
    905500   289.35393      1192.5788     -2320.8678     -1947.4014    
    906000   316.48653      314.33591     -2325.1166     -1916.6304    
    906500   301.74705      944.64784     -2312.6391     -1923.177     
    907000   273.3144       775.08224     -2336.1851     -1983.4208    
    907500   279.85045      624.7001      -2305.6936     -1944.4933    
    908000   300.51704      1666.5716     -2302.3525     -1914.478     
    908500   296.23831      312.64366     -2306.9655     -1924.6134    
    909000   294.83515      614.04643     -2320.0489     -1939.5079    
    909500   301.79503      525.06763     -2340.3881     -1950.864     
    910000   304.53845      101.62899     -2351.2124     -1958.1474    
    910500   292.33336      1812.5927     -2282.3017     -1904.9897    
    911000   287.43388      529.0198      -2309.6648     -1938.6765    
    911500   288.27797      2014.4506     -2317.3889     -1945.3112    
    912000   311.16187      479.93935     -2325.3154     -1923.7017    
    912500   289.78986      1085.6812     -2287.2851     -1913.256     
    913000   313.16929      648.87742     -2290.5578     -1886.3531    
    913500   296.1221       106.98133     -2311.708      -1929.5059    
    914000   303.86811      2576.4017     -2317.4311     -1925.2313    
    914500   323.45593     -381.88156     -2298.5196     -1881.038     
    915000   322.17809      1545.4383     -2286.2952     -1870.4629    
    915500   311.63448      492.3207      -2326.1336     -1923.9099    
    916000   287.34665      2210.5137     -2316.1437     -1945.268     
    916500   300.41628      2596.5084     -2351.5711     -1963.8266    
    917000   301.72458      1931.3523     -2310.3441     -1920.911     
    917500   314.28161      1027.963      -2306.5453     -1900.9049    
    918000   280.90787     -796.03315     -2321.4418     -1958.8766    
    918500   317.3657       756.86555     -2345.902      -1936.2811    
    919000   304.12159      1446.8913     -2304.0664     -1911.5395    
    919500   317.31973      440.44919     -2356.8936     -1947.3319    
    920000   309.55508      1559.9904     -2362.2993     -1962.7594    
    920500   313.71034      2163.7668     -2309.1536     -1904.2505    
    921000   306.4353       1872.468      -2323.2195     -1927.7063    
    921500   307.0098       1370.846      -2335.2761     -1939.0214    
    922000   291.20173      1592.5574     -2282.2744     -1906.423     
    922500   302.97357     -644.03034     -2307.2903     -1916.2451    
    923000   274.24505      933.95857     -2307.4343     -1953.4688    
    923500   313.14836      1491.8919     -2315.3178     -1911.1401    
    924000   310.10156      766.47005     -2318.7838     -1918.5386    
    924500   312.17169      995.95729     -2343.578      -1940.6609    
    925000   297.18038      804.76357     -2324.4134     -1940.8454    
    925500   319.02064      868.15329     -2295.4545     -1883.6975    
    926000   312.47671      577.24123     -2328.8025     -1925.4917    
    926500   289.58444     -178.6179      -2316.6371     -1942.8731    
    927000   305.7479       954.85291     -2292.6263     -1898.0003    
    927500   308.94391      2934.4795     -2304.2689     -1905.5179    
    928000   311.49009      750.92979     -2327.2432     -1925.2058    
    928500   290.62984      1752.6033     -2342.4262     -1967.313     
    929000   285.41399      1421.3783     -2336.2327     -1967.8515    
    929500   298.41302      1284.4953     -2321.3262     -1936.1673    
    930000   310.94217      1099.1728     -2308.8566     -1907.5264    
    930500   318.96392      1324.9773     -2301.6509     -1889.9671    
    931000   297.04201      475.66162     -2326.4695     -1943.0801    
    931500   313.09086      2815.1961     -2315.0655     -1910.962     
    932000   335.92706      918.62001     -2293.6458     -1860.0678    
    932500   297.52721      777.74122     -2313.965      -1929.9493    
    933000   292.18213      481.14541     -2314.5706     -1937.4538    
    933500   308.74643      746.96703     -2293.7077     -1895.2115    
    934000   282.45573      851.4865      -2309.6204     -1945.0574    
    934500   312.17562      439.56477     -2363.7326     -1960.8104    
    935000   300.23428      2054.4891     -2292.4087     -1904.8991    
    935500   297.77124      2034.6775     -2291.23       -1906.8994    
    936000   295.62815      1297.4167     -2341.6408     -1960.0763    
    936500   300.95019     -333.51058     -2335.08       -1946.6463    
    937000   317.43691     -522.38957     -2319.3767     -1909.6638    
    937500   317.76702      2147.3596     -2364.2181     -1954.0792    
    938000   283.71972      496.16473     -2319.591      -1953.3966    
    938500   313.07895      982.30803     -2323.2883     -1919.2002    
    939000   286.63287      116.02732     -2325.1738     -1955.2194    
    939500   291.75744      598.67164     -2339.9558     -1963.3871    
    940000   305.01147      357.51615     -2316.6212     -1922.9458    
    940500   279.27197      1551.8537     -2303.6576     -1943.2039    
    941000   280.17834      1086.6727     -2349.5599     -1987.9363    
    941500   298.46206      847.39556     -2313.6816     -1928.4594    
    942000   301.71648      1309.7235     -2324.8841     -1935.4614    
    942500   287.47237      277.0727      -2321.2103     -1950.1724    
    943000   305.47333      804.59937     -2314.5739     -1920.3023    
    943500   283.3186       1594.6181     -2265.8664     -1900.1897    
    944000   301.63128      572.23312     -2336.4415     -1947.1288    
    944500   288.6902       2338.0781     -2304.8482     -1932.2384    
    945000   300.32393     -88.1247       -2299.1084     -1911.4831    
    945500   310.07204      822.94186     -2321.3998     -1921.1927    
    946000   302.71788      880.37752     -2302.4033     -1911.6881    
    946500   295.43691      1329.8432     -2297.0282     -1915.7105    
    947000   297.98522      1333.0641     -2349.4704     -1964.8637    
    947500   296.10267      412.59809     -2319.5764     -1937.3994    
    948000   288.75611      2680.1001     -2280.1541     -1907.4593    
    948500   302.03178     -85.828743     -2328.1145     -1938.2849    
    949000   304.45411      1786.1657     -2349.675      -1956.7189    
    949500   303.67305      843.42377     -2330.8896     -1938.9416    
    950000   297.27078      1528.4719     -2306.8533     -1923.1686    
    950500   291.91571     -2.2380138     -2358.9193     -1982.1464    
    951000   316.93055      1852.1404     -2363.1185     -1954.0592    
    951500   300.8437       347.99239     -2312.4897     -1924.1936    
    952000   324.79358      801.22738     -2286.7288     -1867.5207    
    952500   302.5016      -196.37154     -2302.2054     -1911.7694    
    953000   302.03435      1659.2442     -2332.1525     -1942.3196    
    953500   307.3814       1169.4766     -2297.8175     -1901.0831    
    954000   310.11058      548.29062     -2316.8088     -1916.552     
    954500   303.1652       432.02363     -2330.2713     -1938.9788    
    955000   305.18702      1208.3667     -2332.0428     -1938.1407    
    955500   278.32052      2757.5056     -2309.4711     -1950.2454    
    956000   310.30818      3031.7652     -2309.153      -1908.6411    
    956500   290.95426      207.72047     -2326.9739     -1951.4419    
    957000   295.53146     -137.83891     -2334.7749     -1953.3351    
    957500   317.05455      1542.6106     -2329.0551     -1919.8357    
    958000   292.79963      210.34095     -2318.3283     -1940.4146    
    958500   277.52806      75.592379     -2343.9618     -1985.7589    
    959000   281.45154      1619.6228     -2322.009      -1958.7421    
    959500   288.22716      2497.9206     -2300.0627     -1928.0505    
    960000   324.32935      2298.9917     -2306.6182     -1888.0093    
    960500   288.91821      1106.4067     -2309.2552     -1936.3512    
    961000   299.20662     -22.755588     -2344.5638     -1958.3806    
    961500   309.35592      626.79744     -2309.8913     -1910.6085    
    962000   289.81014      1032.9455     -2301.7708     -1927.7155    
    962500   295.70274      921.97511     -2309.1782     -1927.5174    
    963000   298.29693      2366.7013     -2292.3218     -1907.3127    
    963500   318.9556       495.87611     -2291.6836     -1880.0106    
    964000   295.05433      2332.4715     -2314.3148     -1933.4909    
    964500   300.12362      1112.2366     -2303.415      -1916.0482    
    965000   322.9744       1062.9352     -2280.6594     -1863.7993    
    965500   308.04538      1645.2533     -2301.4963     -1903.9049    
    966000   292.58265      419.99083     -2313.7262     -1936.0924    
    966500   298.56956      2021.8866     -2313.5304     -1928.1694    
    967000   319.70759      1789.892      -2307.4029     -1894.7593    
    967500   289.13431      1392.5483     -2322.7588     -1949.5759    
    968000   310.4607       2677.3563     -2334.2737     -1933.5649    
    968500   298.89898      505.16792     -2293.9914     -1908.2053    
    969000   294.19846      264.64985     -2334.5952     -1954.876     
    969500   292.70197      1021.4509     -2321.761      -1943.9733    
    970000   307.8746       1966.4934     -2290.0709     -1892.7       
    970500   313.297        1265.8634     -2328.5433     -1924.1738    
    971000   287.93491      1292.8424     -2306.0108     -1934.3759    
    971500   320.31211     -67.158664     -2290.668      -1877.2441    
    972000   316.4271       1767.0196     -2308.6874     -1900.2779    
    972500   311.81113      1433.9081     -2320.0591     -1917.6074    
    973000   297.11793      1151.9211     -2358.4473     -1974.9599    
    973500   294.22332      1058.1778     -2328.062      -1948.3107    
    974000   293.88288      854.89669     -2298.3686     -1919.0566    
    974500   291.32326     -283.07415     -2299.54       -1923.5317    
    975000   294.36497     -766.06255     -2346.7984     -1966.8642    
    975500   293.69193      2411.5222     -2299.7029     -1920.6374    
    976000   301.45452      2026.2356     -2319.6523     -1930.5678    
    976500   299.98065      1126.4749     -2335.1125     -1947.9303    
    977000   311.46771      1570.4446     -2330.013      -1928.0045    
    977500   310.44931      1135.4957     -2269.9549     -1869.2608    
    978000   316.91905      1362.1018     -2315.4214     -1906.3769    
    978500   292.80639      2621.1463     -2311.9989     -1934.0764    
    979000   291.47108      1155.8255     -2317.7286     -1941.5296    
    979500   292.49698      1718.8159     -2299.264      -1921.7408    
    980000   325.691        2251.8008     -2305.7196     -1885.3532    
    980500   293.92214      1146.1196     -2326.5603     -1947.1977    
    981000   287.26766      576.6125      -2313.4423     -1942.6686    
    981500   308.92455      1071.5781     -2289.7846     -1891.0585    
    982000   310.19891      618.79208     -2318.2688     -1917.8979    
    982500   311.60613      718.74839     -2347.5996     -1945.4125    
    983000   283.69927      1221.938      -2317.0765     -1950.9085    
    983500   322.61972     -538.00273     -2339.0021     -1922.5998    
    984000   309.54002      812.33002     -2306.4059     -1906.8855    
    984500   292.19         457.01474     -2315.7899     -1938.663     
    985000   294.83101     -271.4678      -2326.2132     -1945.6776    
    985500   308.55324      1097.575      -2290.7198     -1892.4729    
    986000   301.34281      3239.9787     -2301.671      -1912.7306    
    986500   287.10706      1585.9788     -2296.6094     -1926.043     
    987000   304.35452      877.93371     -2324.2831     -1931.4556    
    987500   305.70549      42.535802     -2295.1895     -1900.6183    
    988000   299.18379      2247.6728     -2272.8735     -1886.7197    
    988500   292.39813     -379.26129     -2314.7355     -1937.3399    
    989000   302.84657      2361.4654     -2313.2862     -1922.4049    
    989500   304.52668     -121.66164     -2283.9484     -1890.8986    
    990000   295.79089      878.78931     -2325.0459     -1943.2714    
    990500   290.68868      947.07093     -2337.6446     -1962.4554    
    991000   283.37296     -369.42989     -2355.7598     -1990.0129    
    991500   292.40718      378.12768     -2315.2564     -1937.8492    
    992000   297.87168      1597.2631     -2298.7836     -1914.3234    
    992500   296.75191      1299.7059     -2332.6586     -1949.6437    
    993000   285.85193      604.98252     -2334.2822     -1965.3357    
    993500   315.63781      775.19489     -2314.3388     -1906.948     
    994000   311.13746     -1483.9588     -2349.6563     -1948.0741    
    994500   311.00724     -305.7508      -2332.6147     -1931.2005    
    995000   307.67443      348.96737     -2296.9017     -1899.7892    
    995500   306.06698      187.79736     -2348.3928     -1953.355     
    996000   292.46633      218.75231     -2334.0108     -1956.5272    
    996500   313.79328      1250.0836     -2309.2637     -1904.2536    
    997000   300.4671       6.0477336     -2321.973      -1934.1629    
    997500   277.33797      177.92372     -2338.4005     -1980.4429    
    998000   302.91749      656.92064     -2337.5553     -1946.5825    
    998500   304.54826      1182.5475     -2300.2545     -1907.1769    
    999000   297.1814       2665.1494     -2325.4847     -1941.9154    
    999500   297.43909      2268.4944     -2355.2153     -1971.3134    
   1000000   283.19403      1839.2967     -2309.6912     -1944.1753    
   1000500   317.83254     -1088.056      -2312.8407     -1902.6172    
   1001000   286.0793       1434.0161     -2315.0826     -1945.8427    
   1001500   286.82031      2037.0693     -2310.9276     -1940.7312    
   1002000   321.58662      897.11297     -2324.5415     -1909.4726    
   1002500   295.93607      396.53331     -2339.7099     -1957.7479    
   1003000   292.8644      -676.0187      -2323.7358     -1945.7384    
   1003500   301.48058      644.21375     -2301.1822     -1912.064     
   1004000   284.89631      2589.0989     -2293.2898     -1925.5768    
   1004500   274.59767      1671.1854     -2303.7498     -1949.3291    
   1005000   305.50501     -346.851       -2301.2233     -1906.9108    
   1005500   304.21092      868.1456      -2337.0917     -1944.4494    
   1006000   284.51223     -1304.6024     -2349.2327     -1982.0154    
   1006500   303.92836     -867.48706     -2353.5555     -1961.278     
   1007000   313.79318      1268.8672     -2323.4461     -1918.4361    
   1007500   309.59889      824.15895     -2296.1893     -1896.5929    
   1008000   299.34018      1144.2695     -2302.5741     -1916.2185    
   1008500   280.04544      1790.9251     -2301.039      -1939.587     
   1009000   304.41632      2367.2439     -2290.5692     -1897.6619    
   1009500   319.8861       1651.8481     -2271.731      -1858.857     
   1010000   303.30867      1471.3879     -2319.6246     -1928.1469    
   1010500   297.39815      1227.2146     -2317.9971     -1934.148     
   1011000   300.15106      1582.2086     -2304.5701     -1917.1679    
   1011500   298.75404      1063.4809     -2324.5239     -1938.9248    
   1012000   306.51848      503.84781     -2334.3693     -1938.7488    
   1012500   302.67856      1013.2961     -2314.6004     -1923.936     
   1013000   294.50295      828.80468     -2337.316      -1957.2037    
   1013500   310.50439      494.72113     -2352.3818     -1951.6166    
   1014000   308.84157      2372.2042     -2336.0561     -1937.4372    
   1014500   304.36168      1434.1856     -2294.0161     -1901.1793    
   1015000   301.67457      1298.1822     -2346.2731     -1956.9046    
   1015500   298.4346       542.55576     -2326.9868     -1941.8       
   1016000   304.78893      269.21295     -2294.8828     -1901.4945    
   1016500   305.75953      2310.1063     -2327.3146     -1932.6736    
   1017000   307.63227      766.31178     -2328.8615     -1931.8033    
   1017500   304.93063      1402.1307     -2317.7987     -1924.2276    
   1018000   327.06818      1126.3306     -2291.0269     -1868.8831    
   1018500   299.76956      903.46505     -2289.9204     -1903.0106    
   1019000   300.23756      1974.4644     -2329.7834     -1942.2695    
   1019500   293.07566      1397.7607     -2308.9548     -1930.6848    
   1020000   297.082       -1962.0088     -2290.4405     -1906.9996    
   1020500   304.53871      918.77089     -2324.0999     -1931.0346    
   1021000   284.52019      534.27285     -2347.1526     -1979.9251    
   1021500   302.39334      1413.3545     -2367.3338     -1977.0376    
   1022000   298.71304      1850.0336     -2330.5447     -1944.9986    
   1022500   276.53845      2069.9164     -2309.0957     -1952.1701    
   1023000   292.25881      747.81852     -2357.6898     -1980.4741    
   1023500   301.10368      316.79044     -2316.2457     -1927.614     
   1024000   312.59049      580.19524     -2309.1484     -1905.6907    
   1024500   302.05731     -727.46672     -2327.6949     -1937.8323    
   1025000   286.54474     -309.82244     -2320.7064     -1950.8658    
   1025500   305.10186     -404.94088     -2290.7751     -1896.9829    
   1026000   312.8582      -14.626047     -2331.7804     -1927.9772    
   1026500   287.05958      478.36984     -2327.4133     -1956.9081    
   1027000   307.0122       1523.4047     -2339.6247     -1943.3669    
   1027500   312.63351      2071.0271     -2316.7489     -1913.2358    
   1028000   308.74595      942.20183     -2306.3864     -1907.8908    
   1028500   290.40664     -1050.7278     -2335.1236     -1960.2984    
   1029000   294.24347     -831.81325     -2296.5522     -1916.7749    
   1029500   324.78866      637.41882     -2320.3285     -1901.1267    
   1030000   303.49507      1279.1961     -2324.0667     -1932.3484    
   1030500   291.3727       236.15767     -2335.1464     -1959.0743    
   1031000   310.10812      700.00034     -2306.5801     -1906.3265    
   1031500   292.84528      920.60824     -2310.5803     -1932.6076    
   1032000   301.65773      1100.1944     -2354.4692     -1965.1223    
   1032500   319.44171      1536.5316     -2322.5941     -1910.2937    
   1033000   304.2932       1702.7177     -2302.844      -1910.0956    
   1033500   281.36001      1854.8013     -2319.1972     -1956.0484    
   1034000   304.6982      -169.45379     -2306.271      -1912.9998    
   1034500   294.43402      2300.5813     -2305.3878     -1925.3646    
   1035000   284.41337     -55.62427      -2323.9089     -1956.8192    
   1035500   281.07195      795.08061     -2331.1693     -1968.3924    
   1036000   299.85522      593.95435     -2302.7744     -1915.7541    
   1036500   297.35366     -2029.5894     -2309.8615     -1926.0699    
   1037000   286.24527      456.10997     -2307.725      -1938.2709    
   1037500   294.41832      1449.2552     -2302.9798     -1922.9768    
   1038000   308.114        1292.8608     -2308.7624     -1911.0825    
   1038500   307.38171      168.84863     -2323.6496     -1926.9149    
   1039000   289.90092      692.62531     -2299.5485     -1925.376     
   1039500   307.24209      940.15528     -2337.6961     -1941.1416    
   1040000   294.13445     -437.93499     -2340.6402     -1961.0036    
   1040500   335.27479      606.24373     -2338.0031     -1905.267     
   1041000   304.63595      2119.2315     -2332.9091     -1939.7183    
   1041500   290.31904      191.55346     -2373.3317     -1998.6196    
   1042000   291.33106      3474.2896     -2329.1497     -1953.1314    
   1042500   301.48131      1234.6967     -2309.4009     -1920.2817    
   1043000   306.14867      479.56187     -2308.6485     -1913.5053    
   1043500   291.6817      -1032.6159     -2334.7784     -1958.3075    
   1044000   306.88838     -976.1993      -2333.7257     -1937.6277    
   1044500   308.68999     -683.80739     -2299.0791     -1900.6558    
   1045000   302.58269      1541.5632     -2308.5648     -1918.0242    
   1045500   287.92941      1913.8114     -2336.3607     -1964.7329    
   1046000   306.76344      231.86167     -2316.6599     -1920.7231    
   1046500   297.3235       2265.6571     -2306.1381     -1922.3854    
   1047000   259.38907      1305.8448     -2313.3701     -1978.579     
   1047500   288.16817      1028.5773     -2305.7338     -1933.7978    
   1048000   310.04963      919.05064     -2313.4797     -1913.3015    
   1048500   300.82465      157.03984     -2326.3174     -1938.0458    
   1049000   297.91352      1892.9919     -2315.7742     -1931.26      
   1049500   314.36926      1967.0536     -2288.9593     -1883.2058    
   1050000   298.80891      1889.0531     -2317.8684     -1932.1985    
   1050500   291.085        1330.9577     -2318.3209     -1942.6202    
   1051000   302.86329      1019.2427     -2303.5622     -1912.6594    
   1051500   319.8382       829.14162     -2293.838      -1881.0258    
   1052000   296.30449      605.50049     -2330.5991     -1948.1617    
   1052500   285.85683      1002.8695     -2316.4539     -1947.5011    
   1053000   309.61745      1710.4302     -2296.3652     -1896.7448    
   1053500   277.3259       1386.4334     -2282.2249     -1924.2829    
   1054000   286.8248       1891.9394     -2342.4117     -1972.2096    
   1054500   308.12765      1108.079      -2333.1256     -1935.428     
   1055000   290.6502       1356.4786     -2314.0145     -1938.875     
   1055500   272.32382      84.815671     -2335.3355     -1983.8497    
   1056000   287.39753      1002.0337     -2284.0792     -1913.1379    
   1056500   306.74104      179.54591     -2314.6397     -1918.7319    
   1057000   293.38416      6.0934205     -2343.3447     -1964.6765    
   1057500   301.43037      59.978555     -2298.5149     -1909.4615    
   1058000   292.98095      2226.4429     -2301.2093     -1923.0615    
   1058500   288.6109       1242.5409     -2322.1123     -1949.6049    
   1059000   311.49649      1524.8871     -2294.0555     -1892.0098    
   1059500   302.44925      2014.6842     -2319.2922     -1928.9238    
   1060000   297.3008       650.81163     -2332.6393     -1948.9159    
   1060500   289.65476      1314.7565     -2298.7741     -1924.9194    
   1061000   313.57558      753.39978     -2317.7252     -1912.9961    
   1061500   276.34536      156.24538     -2320.7376     -1964.0612    
   1062000   286.117        400.4854      -2292.7308     -1923.4422    
   1062500   313.7377       1795.096      -2328.0537     -1923.1154    
   1063000   302.89438      127.10515     -2311.7487     -1920.8057    
   1063500   301.36486      701.55931     -2265.6406     -1876.6718    
   1064000   290.02809      221.42355     -2307.2818     -1932.9452    
   1064500   297.09017      173.00524     -2333.2762     -1949.8247    
   1065000   292.02585      1788.33       -2283.0006     -1906.0856    
   1065500   310.51808      789.15777     -2310.4432     -1909.6604    
   1066000   292.35844      2178.3968     -2314.4635     -1937.1192    
   1066500   307.15281      739.82573     -2307.1379     -1910.6986    
   1067000   307.76767      19.002391     -2267.2238     -1869.9909    
   1067500   304.87728      1605.0305     -2331.7015     -1938.1992    
   1068000   305.4579       391.0694      -2323.2403     -1928.9886    
   1068500   297.36885      1739.1476     -2276.4433     -1892.6321    
   1069000   305.61506      804.93523     -2307.2248     -1912.7703    
   1069500   288.39735     -150.7662      -2311.0074     -1938.7757    
   1070000   302.77888      1610.969      -2282.3756     -1891.5817    
   1070500   290.11846      2193.9235     -2292.5596     -1918.1064    
   1071000   316.67775      1774.4008     -2321.7283     -1912.9953    
   1071500   309.00335      1664.4424     -2290.0037     -1891.1759    
   1072000   302.67964      1793.7008     -2324.3976     -1933.7317    
   1072500   282.76623      789.21186     -2322.6911     -1957.7274    
   1073000   305.57022      1044.9734     -2298.817      -1904.4204    
   1073500   298.20298      2124.2119     -2325.1304     -1940.2426    
   1074000   299.44857      1091.4198     -2327.6862     -1941.1907    
   1074500   308.28827      539.09293     -2286.423      -1888.5182    
   1075000   300.1259       970.90524     -2325.1283     -1937.7586    
   1075500   309.07549      2265.6143     -2333.3616     -1934.4407    
   1076000   289.34876     -280.88891     -2334.553      -1961.0932    
   1076500   296.74965      354.25722     -2342.7563     -1959.7442    
   1077000   284.21013      1727.1599     -2293.8244     -1926.9971    
   1077500   316.79544      825.79306     -2310.6367     -1901.7518    
   1078000   309.84322      52.480902     -2336.4368     -1936.5251    
   1078500   276.16083      1750.8364     -2306.6324     -1950.1941    
   1079000   288.68699     -659.40507     -2271.6635     -1899.0579    
   1079500   309.04203      817.41902     -2306.7894     -1907.9117    
   1080000   279.36157     -187.27394     -2298.8131     -1938.2437    
   1080500   288.40143      683.86362     -2297.4079     -1925.1709    
   1081000   274.66029      1089.4996     -2330.1283     -1975.6268    
   1081500   304.04541      1285.1493     -2317.0304     -1924.6018    
   1082000   300.46608      397.36628     -2310.7401     -1922.9313    
   1082500   301.62319      598.18883     -2314.9839     -1925.6817    
   1083000   297.54744      1492.8363     -2347.1334     -1963.0917    
   1083500   284.74774      1869.2682     -2327.1673     -1959.6461    
   1084000   296.8547       779.30188     -2303.893      -1920.7454    
   1084500   265.92092      2198.6682     -2293.9613     -1950.7397    
   1085000   268.59973      965.53988     -2330.3632     -1983.684     
   1085500   305.5766       2116.6188     -2329.7875     -1935.3826    
   1086000   292.13142      121.59296     -2330.963      -1953.9117    
   1086500   312.71012      889.29498     -2329.6402     -1926.0281    
   1087000   302.57282      1019.6433     -2282.5496     -1892.0217    
   1087500   280.17605      1420.4142     -2315.2788     -1953.6582    
   1088000   290.0975       257.82121     -2327.0175     -1952.5913    
   1088500   303.11043      1336.8838     -2314.6717     -1923.4498    
   1089000   301.23434      534.40574     -2297.2401     -1908.4397    
   1089500   297.43058     -365.31269     -2353.1532     -1969.2623    
   1090000   287.35986      1042.9079     -2318.0661     -1947.1734    
   1090500   319.20583      1711.0209     -2334.6328     -1922.6368    
   1091000   306.71876      1635.6039     -2332.4336     -1936.5545    
   1091500   277.35493      1133.5468     -2338.9868     -1981.0074    
   1092000   300.93583      1018.8445     -2316.5121     -1928.0971    
   1092500   300.6589       1013.7804     -2297.3736     -1909.3159    
   1093000   310.80015      508.39222     -2339.7352     -1938.5883    
   1093500   289.89249      458.17789     -2324.7417     -1950.5801    
   1094000   323.85671     -144.26966     -2326.7887     -1908.7898    
   1094500   297.74124      1153.3766     -2332.2121     -1947.9203    
   1095000   294.92361      760.05078     -2332.1997     -1951.5445    
   1095500   336.71226      673.03026     -2319.6102     -1885.0188    
   1096000   313.34577      3135.4137     -2318.6321     -1914.1996    
   1096500   293.22625      2570.7889     -2308.3753     -1929.9109    
   1097000   306.54479      1387.5445     -2267.9906     -1872.3361    
   1097500   301.4324       132.47848     -2304.7382     -1915.6822    
   1098000   291.27034      1659.4862     -2301.6869     -1925.7469    
   1098500   300.92403      538.32835     -2363.1403     -1974.7404    
   1099000   285.35471      931.19547     -2332.1692     -1963.8645    
   1099500   299.92676      1940.705      -2311.7919     -1924.6792    
   1100000   279.18024      1044.8404     -2296.5357     -1936.2003    
   1100500   315.97622      1307.3896     -2376.0894     -1968.2618    
   1101000   302.27056      862.14243     -2319.3137     -1929.1759    
   1101500   305.46516      1100.8242     -2303.4953     -1909.2342    
   1102000   302.2211       1625.3377     -2301.9579     -1911.884     
   1102500   296.19511     -1260.7959     -2339.7175     -1957.4212    
   1103000   307.49089      57.379619     -2326.2979     -1929.4222    
   1103500   292.91629     -44.426963     -2270.1438     -1892.0795    
   1104000   300.77565      1466.1155     -2309.4769     -1921.2685    
   1104500   288.76128      1379.229      -2330.3831     -1957.6816    
   1105000   302.13477     -209.01298     -2315.7501     -1925.7876    
   1105500   291.73503      1490.2094     -2280.0551     -1903.5154    
   1106000   305.3967       1649.7297     -2313.6885     -1919.5158    
   1106500   285.29882      550.16981     -2328.627      -1960.3945    
   1107000   300.31267      1487.7101     -2303.18       -1915.5692    
   1107500   316.08648      1804.8726     -2334.9811     -1927.0112    
   1108000   278.30448      3844.9122     -2330.5962     -1971.3911    
   1108500   309.02092      2323.5187     -2322.395      -1923.5445    
   1109000   314.85493      945.40887     -2309.9387     -1903.5583    
   1109500   293.02757      72.002431     -2306.8151     -1928.6071    
   1110000   282.98111      1285.2946     -2343.8409     -1978.5998    
   1110500   302.56744      516.81392     -2343.5241     -1953.0031    
   1111000   300.47944      77.220324     -2309.1976     -1921.3716    
   1111500   307.94635      766.39448     -2332.4474     -1934.9839    
   1112000   287.78305     -419.20046     -2341.6194     -1970.1805    
   1112500   296.85957     -434.26376     -2316.0669     -1932.913     
   1113000   273.92179      982.17568     -2265.7235     -1912.1752    
   1113500   309.58642      1367.7282     -2275.8585     -1876.2782    
   1114000   304.15001      667.35174     -2333.3881     -1940.8245    
   1114500   310.36559      888.88026     -2327.6166     -1927.0306    
   1115000   313.192        1960.2375     -2298.9061     -1894.6721    
   1115500   298.2506       1072.494      -2306.0273     -1921.078     
   1116000   284.88002      2347.3597     -2318.0708     -1950.3788    
   1116500   303.29089      1333.3331     -2290.0262     -1898.5715    
   1117000   300.51115      900.8666      -2286.1559     -1898.2889    
   1117500   298.29155      1082.5433     -2316.3921     -1931.3899    
   1118000   316.95034      1696.8303     -2307.7561     -1898.6712    
   1118500   302.47285      1492.8597     -2282.3096     -1891.9106    
   1119000   298.75853      2363.1712     -2321.5396     -1935.9347    
   1119500   301.12101      1625.8386     -2320.9141     -1932.26      
   1120000   325.06228      1141.8346     -2303.9144     -1884.3595    
   1120500   289.15827      1606.1217     -2295.521      -1922.3071    
   1121000   298.03334      56.442659     -2317.3187     -1932.6499    
   1121500   277.64713      241.70228     -2295.9311     -1937.5745    
   1122000   290.08536      453.49508     -2353.0197     -1978.6092    
   1122500   302.44365     -69.402794     -2342.1792     -1951.818     
   1123000   309.79606      150.46067     -2322.7072     -1922.8563    
   1123500   298.11932      1609.4884     -2294.9425     -1910.1627    
   1124000   290.19565      106.64398     -2309.7554     -1935.2026    
   1124500   310.34936      857.34045     -2336.5836     -1936.0185    
   1125000   308.09936      225.4263      -2290.988      -1893.327     
   1125500   291.06157      2594.7858     -2305.9106     -1930.2402    
   1126000   314.77869      1026.9255     -2341.6734     -1935.3915    
   1126500   313.6514       2529.9127     -2304.921      -1900.0941    
   1127000   297.83828      1099.4756     -2287.4505     -1903.0334    
   1127500   302.81885      1860.0956     -2323.2068     -1932.3614    
   1128000   291.00727      785.6863      -2281.7326     -1906.1322    
   1128500   324.57746      1717.1384     -2299.7874     -1880.8582    
   1129000   295.59161      291.04166     -2302.6443     -1921.1269    
   1129500   302.06246      1320.0784     -2322.8305     -1932.9613    
   1130000   310.61317      1404.546      -2341.6225     -1940.7169    
   1130500   304.96985      1175.8591     -2311.9911     -1918.3694    
   1131000   304.90729      171.27337     -2294.5822     -1901.0412    
   1131500   289.49334      1798.0553     -2300.3075     -1926.6612    
   1132000   284.188       -251.94309     -2320.8767     -1954.0779    
   1132500   321.57928      1004.9706     -2326.8465     -1911.7871    
   1133000   273.59061      889.34533     -2289.8089     -1936.6881    
   1133500   300.59177      78.553431     -2359.3362     -1971.3652    
   1134000   284.80048     -335.83167     -2342.4969     -1974.9075    
   1134500   294.61777      1845.2394     -2306.9822     -1926.7218    
   1135000   304.64809     -597.92853     -2314.4136     -1921.2071    
   1135500   306.60133      1532.5835     -2347.5218     -1951.7943    
   1136000   300.94292     -546.14417     -2361.8534     -1973.4291    
   1136500   300.23353      1317.8637     -2313.4811     -1925.9724    
   1137000   304.52672      1523.9028     -2327.4346     -1934.3848    
   1137500   294.0569       1237.1621     -2351.5664     -1972.0299    
   1138000   303.42924      447.7221      -2305.8967     -1914.2634    
   1138500   285.04282      424.93689     -2294.0396     -1926.1374    
   1139000   303.31927      1176.8463     -2326.1054     -1934.614     
   1139500   302.10905      865.94549     -2274.1623     -1884.2329    
   1140000   312.85019      1702.5688     -2339.4591     -1935.6662    
   1140500   287.9372       1345.6609     -2313.581      -1941.9432    
   1141000   316.67697      1438.6511     -2295.1778     -1886.4457    
   1141500   298.44728      481.32405     -2305.2366     -1920.0335    
   1142000   306.43063      1479.2082     -2329.2851     -1933.7779    
   1142500   289.38332      1085.1169     -2356.9696     -1983.4652    
   1143000   298.34653     -843.1187      -2319.3686     -1934.2955    
   1143500   295.3255       2839.6861     -2299.395      -1918.2211    
   1144000   293.63936     -617.55749     -2351.0241     -1972.0265    
   1144500   286.23955      2037.3501     -2322.279      -1952.8323    
   1145000   294.03509      702.86521     -2313.4259     -1933.9175    
   1145500   310.03339      1679.9908     -2275.7918     -1875.6346    
   1146000   327.08268      731.38694     -2303.2465     -1881.0839    
   1146500   292.53091     -82.792229     -2304.0991     -1926.5322    
   1147000   300.92116      217.71952     -2330.9214     -1942.5252    
   1147500   313.45703     -622.27277     -2300.7595     -1896.1834    
   1148000   303.53495      1664.5429     -2291.3763     -1899.6065    
   1148500   278.11797      1013.9994     -2317.4565     -1958.4922    
   1149000   304.47075      1456.1101     -2310.4542     -1917.4766    
   1149500   298.21959      1055.7188     -2302.9805     -1918.0713    
   1150000   312.43676     -73.242767     -2332.7694     -1929.5101    
   1150500   298.06504      64.725787     -2332.8053     -1948.0955    
   1151000   303.42594     -117.54227     -2368.4014     -1976.7723    
   1151500   297.88538      690.95038     -2307.0542     -1922.5763    
   1152000   307.67558      1695.6507     -2308.1441     -1911.0301    
   1152500   300.36952      579.01022     -2341.3725     -1953.6883    
   1153000   292.09957      2432.4352     -2326.4152     -1949.405     
   1153500   319.10307      1564.6574     -2313.1536     -1901.2902    
   1154000   306.81459      842.46811     -2339.8555     -1943.8528    
   1154500   292.41199     -220.12126     -2336.1255     -1958.712     
   1155000   303.62361      1131.2777     -2308.5162     -1916.632     
   1155500   325.57833     -1335.8071     -2313.1047     -1892.8837    
   1156000   294.88174      823.62722     -2303.9897     -1923.3885    
   1156500   279.85321     -257.22134     -2307.1332     -1945.9292    
   1157000   305.42062      1052.051      -2282.3111     -1888.1076    
   1157500   300.13752      74.581312     -2297.9415     -1910.5568    
   1158000   303.47473      2731.1205     -2304.1359     -1912.4439    
   1158500   302.98547      424.87334     -2318.4628     -1927.4022    
   1159000   296.5564       1053.3689     -2310.9716     -1928.209     
   1159500   300.14126      1864.1295     -2317.5058     -1930.1163    
   1160000   302.66875      885.762       -2309.6695     -1919.0178    
   1160500   318.80752      2052.7011     -2304.5262     -1893.0443    
   1161000   292.97956     -181.59887     -2323.9316     -1945.7856    
   1161500   300.29258      1147.1494     -2323.5237     -1935.9388    
   1162000   304.80478      558.84259     -2276.4165     -1883.0078    
   1162500   314.4036      -395.61197     -2322.5821     -1916.7843    
   1163000   320.48439      364.29149     -2357.1472     -1943.5009    
   1163500   285.16376      280.51007     -2305.9083     -1937.8501    
   1164000   314.87633      1941.9024     -2304.653      -1898.245     
   1164500   292.43146      324.72229     -2322.1868     -1944.7482    
   1165000   301.72565      869.46764     -2316.5504     -1927.1159    
   1165500   308.34398      1234.0615     -2308.6421     -1910.6654    
   1166000   290.05499      930.20048     -2307.8146     -1933.4433    
   1166500   285.57141      673.68465     -2289.0601     -1920.4757    
   1167000   309.71327      968.82973     -2284.6932     -1884.9491    
   1167500   292.05439      297.69936     -2324.0033     -1947.0514    
   1168000   287.05799      2112.9228     -2300.6108     -1930.1077    
   1168500   315.04         585.82203     -2302.0252     -1895.406     
   1169000   300.19733      447.52877     -2285.3227     -1897.8608    
   1169500   296.52182     -516.39095     -2332.2396     -1949.5217    
   1170000   292.56939      676.45484     -2302.8644     -1925.2478    
   1170500   302.79217      811.34839     -2268.1043     -1877.2932    
   1171000   291.39435      162.85994     -2294.9316     -1918.8316    
   1171500   300.72762      302.573       -2321.7195     -1933.5731    
   1172000   313.94791      1626.5767     -2290.4124     -1885.2027    
   1172500   308.41334      178.77197     -2300.5241     -1902.4579    
   1173000   306.65105      1028.2569     -2322.7905     -1926.9988    
   1173500   298.49763      1735.5248     -2314.9458     -1929.6776    
   1174000   304.96879     -320.73978     -2293.8816     -1900.2612    
   1174500   311.86284      1809.2785     -2356.2816     -1953.7631    
   1175000   315.1505      -376.8583      -2350.4243     -1943.6625    
   1175500   320.01472      240.35527     -2305.912      -1892.872     
   1176000   282.92715     -151.94819     -2298.3664     -1933.195     
   1176500   283.34292      1293.1993     -2307.2946     -1941.5865    
   1177000   310.03016      378.26111     -2282.8141     -1882.6611    
   1177500   305.48772      2242.6491     -2321.2622     -1926.9721    
   1178000   282.2935       233.38282     -2316.9655     -1952.6119    
   1178500   332.12043      709.99498     -2328.2675     -1899.6027    
   1179000   316.44536      963.99612     -2328.3978     -1919.9647    
   1179500   283.84844      703.61036     -2312.4339     -1946.0733    
   1180000   337.36335      357.79489     -2311.9632     -1876.5314    
   1180500   299.54646      2425.798      -2298.947      -1912.3251    
   1181000   289.41038      1292.4686     -2327.9155     -1954.3762    
   1181500   311.5267       1560.4206     -2359.0633     -1956.9787    
   1182000   289.48153      2468.0402     -2280.7793     -1907.1482    
   1182500   280.18016      473.05506     -2280.8833     -1919.2574    
   1183000   299.2033      -394.38069     -2335.0345     -1948.8556    
   1183500   300.78807      731.52723     -2314.2775     -1926.0532    
   1184000   286.91875     -480.81982     -2291.4335     -1921.1101    
   1184500   299.89801      89.907427     -2300.3622     -1913.2867    
   1185000   303.26744      382.30107     -2323.1467     -1931.7222    
   1185500   268.80914      2137.3472     -2323.7752     -1976.8258    
   1186000   294.03332      1232.3204     -2302.3202     -1922.8141    
   1186500   298.24087      235.17126     -2319.7916     -1934.8548    
   1187000   288.60908      2611.0322     -2345.832      -1973.327     
   1187500   311.70545      1222.5822     -2331.6116     -1929.2963    
   1188000   313.78994      868.18659     -2307.0201     -1902.0143    
   1188500   281.50095      2977.6871     -2316.7259     -1953.3952    
   1189000   309.00585      679.73031     -2349.8266     -1950.9956    
   1189500   290.97705     -979.8603      -2299.1191     -1923.5577    
   1190000   298.2254       1258.8092     -2307.7994     -1922.8827    
   1190500   288.71692      2509.5422     -2326.2381     -1953.5939    
   1191000   285.13899      2040.7021     -2337.0353     -1969.009     
   1191500   309.05868      689.43846     -2311.4175     -1912.5183    
   1192000   306.54359      342.0394      -2312.5571     -1916.9041    
   1192500   288.98603      186.12056     -2333.3561     -1960.3645    
   1193000   289.18933      1288.2        -2308.2816     -1935.0276    
   1193500   297.06547      1952.2849     -2301.4172     -1917.9976    
   1194000   309.01607      937.43124     -2334.4516     -1935.6074    
   1194500   291.44225      642.53073     -2336.4116     -1960.2497    
   1195000   308.72865      1031.6626     -2312.3909     -1913.9176    
   1195500   310.58         874.50369     -2314.7636     -1913.9008    
   1196000   294.34461      2096.6346     -2344.9323     -1965.0245    
   1196500   307.36761      1996.6072     -2333.4454     -1936.7289    
   1197000   313.7542       398.41529     -2293.678      -1888.7184    
   1197500   310.53469      961.17236     -2283.6523     -1882.848     
   1198000   302.72961      502.45695     -2309.585      -1918.8547    
   1198500   293.939        271.98643     -2307.2771     -1927.8927    
   1199000   309.58315      1208.9592     -2283.6275     -1884.0514    
   1199500   287.33432      1580.3922     -2307.3578     -1936.498     
   1200000   290.18397      795.36638     -2284.8257     -1910.2879    
   1200500   320.90541      409.03564     -2299.3289     -1885.1392    
   1201000   301.17848      427.19363     -2334.317      -1945.5888    
   1201500   312.62607      705.28315     -2319.4154     -1915.9118    
   1202000   287.7957       1025.5853     -2282.8963     -1911.441     
   1202500   291.66743      1024.805      -2335.3484     -1958.8959    
   1203000   315.93791      748.6729      -2322.7556     -1914.9775    
   1203500   291.74406      742.36403     -2305.3124     -1928.761     
   1204000   309.37114      1545.7965     -2328.7853     -1929.4828    
   1204500   285.32859     -350.04397     -2329.8566     -1961.5857    
   1205000   285.58456      2944.4619     -2330.7408     -1962.1395    
   1205500   306.68474      181.64719     -2307.3421     -1911.507     
   1206000   307.38502      933.52711     -2333.7465     -1937.0075    
   1206500   290.6595       820.79407     -2340.1744     -1965.0228    
   1207000   314.66266      1154.8102     -2342.7776     -1936.6454    
   1207500   297.85102      1424.536      -2317.1269     -1932.6933    
   1208000   303.47026      680.43113     -2279.9539     -1888.2676    
   1208500   311.03348      1089.97       -2300.528      -1899.08      
   1209000   313.34879      555.91333     -2330.1421     -1925.7057    
   1209500   284.27678      1911.233      -2307.9953     -1941.0819    
   1210000   321.75382      691.58247     -2355.7198     -1940.4351    
   1210500   321.70585      1627.6734     -2314.7518     -1899.529     
   1211000   304.50989      399.41922     -2314.7282     -1921.7001    
   1211500   286.6655       1326.8774     -2320.2565     -1950.26      
   1212000   301.77545      125.58946     -2297.273      -1907.7742    
   1212500   275.18657      229.27587     -2310.9785     -1955.7977    
   1213000   294.29578      1994.8367     -2322.8969     -1943.0521    
   1213500   296.35182      1332.6509     -2300.4744     -1917.9758    
   1214000   283.6467       762.07986     -2293.6772     -1927.577     
   1214500   292.23664      1049.815      -2349.7428     -1972.5557    
   1215000   300.99463      1675.4987     -2315.3871     -1926.8961    
   1215500   301.37951      875.28853     -2297.9763     -1908.9886    
   1216000   300.6898       163.11958     -2356.154      -1968.0564    
   1216500   314.69751      935.64112     -2358.3658     -1952.1886    
   1217000   308.90283      1546.2149     -2315.8404     -1917.1424    
   1217500   321.58113      1011.4878     -2326.9987     -1911.9369    
   1218000   308.38557      2326.2556     -2345.638      -1947.6076    
   1218500   293.72024      47.720142     -2321.5229     -1942.4209    
   1219000   314.3303       548.21322     -2299.562      -1893.8588    
   1219500   302.79372      632.6742      -2333.9276     -1943.1146    
   1220000   309.21421      238.4408      -2328.1149     -1929.015     
   1220500   321.13702      1716.0101     -2289.3604     -1874.8718    
   1221000   303.31882      1232.2009     -2304.9222     -1913.4314    
   1221500   292.101        513.02623     -2305.6608     -1928.6488    
   1222000   308.09208      1282.2629     -2312.2127     -1914.5611    
   1222500   295.03529      101.86767     -2316.9756     -1936.1763    
   1223000   292.30581      527.73742     -2366.5386     -1989.2622    
   1223500   289.87352      1203.2428     -2341.182      -1967.0449    
   1224000   299.88388     -101.30377     -2325.3982     -1938.3409    
   1224500   302.92223      870.39055     -2293.6444     -1902.6655    
   1225000   292.89818      2297.1741     -2332.7617     -1954.7207    
   1225500   293.57898      41.523934     -2316.0147     -1937.095     
   1226000   302.16559      1213.031      -2320.6613     -1930.659     
   1226500   318.46879      562.92601     -2345.5459     -1934.5012    
   1227000   286.08636      1843.6679     -2351.3187     -1982.0697    
   1227500   305.24977     -689.34567     -2348.9888     -1955.0058    
   1228000   308.71632      1814.6457     -2318.2057     -1919.7484    
   1228500   295.70611      1624.7661     -2267.2138     -1885.5486    
   1229000   308.76789     -242.57191     -2320.1689     -1921.6451    
   1229500   300.3078       838.64788     -2347.164      -1959.5595    
   1230000   295.11699      1491.4266     -2295.8567     -1914.9519    
   1230500   312.26351      1086.3248     -2318.8591     -1915.8234    
   1231000   293.41328     -14.443766     -2336.3044     -1957.5986    
   1231500   298.23011      1537.9295     -2315.5141     -1930.5913    
   1232000   315.02749      2192.4521     -2270.9586     -1864.3556    
   1232500   298.2737       1826.6617     -2280.6373     -1895.6582    
   1233000   302.14484      1227.2925     -2324.6756     -1934.7       
   1233500   293.24148     -42.136772     -2310.4236     -1931.9396    
   1234000   304.45698      624.93273     -2288.4386     -1895.4788    
   1234500   305.81402     -260.56895     -2324.8904     -1930.1791    
   1235000   291.2847       1563.1014     -2311.4537     -1935.4952    
   1235500   278.58746      2255.9123     -2310.1489     -1950.5786    
   1236000   280.77802     -543.16335     -2324.5754     -1962.1778    
   1236500   308.01605      2838.0191     -2311.002      -1913.4485    
   1237000   292.8112       527.2002      -2313.168      -1935.2393    
   1237500   272.15999      804.10367     -2322.7616     -1971.4872    
   1238000   302.76558     -602.28511     -2327.3726     -1936.5959    
   1238500   283.40376      2021.7128     -2277.999      -1912.2123    
   1239000   323.46166      2070.2175     -2280.3519     -1862.863     
   1239500   294.1013       956.48098     -2291.7227     -1912.1289    
   1240000   283.51786      717.09064     -2310.5091     -1944.5752    
   1240500   305.22153      255.57621     -2314.2939     -1920.3473    
   1241000   297.87876      1094.1092     -2289.9979     -1905.5286    
   1241500   290.30496      912.92639     -2323.359      -1948.6651    
   1242000   286.05065      285.79942     -2347.8776     -1978.6747    
   1242500   279.77971      6.0914323     -2316.2932     -1955.1841    
   1243000   300.55612     -303.80602     -2298.1414     -1910.2164    
   1243500   297.70872     -336.64263     -2309.2859     -1925.0361    
   1244000   273.79351     -196.432       -2333.9166     -1980.5338    
   1244500   278.86426      1899.628      -2298.6498     -1938.7223    
   1245000   279.38085      1150.4954     -2279.7516     -1919.1573    
   1245500   324.66214      1684.3913     -2289.2409     -1870.2025    
   1246000   289.35061      1462.6358     -2284.481      -1911.0189    
   1246500   300.70668      1139.488      -2299.022      -1910.9027    
   1247000   302.9414       1631.0771     -2349.1297     -1958.126     
   1247500   308.91525      847.40397     -2352.4454     -1953.7314    
   1248000   306.01447      105.37563     -2306.0558     -1911.0857    
   1248500   291.67207      2427.1835     -2307.6391     -1931.1806    
   1249000   289.88417      937.06868     -2339.2047     -1965.0539    
   1249500   307.71315      169.04422     -2308.5465     -1911.3839    
   1250000   292.35927      373.84157     -2296.104      -1918.7586    
   1250500   310.46527      1021.6443     -2356.1437     -1955.4291    
   1251000   300.00893      1477.2056     -2338.9724     -1951.7537    
   1251500   309.7953       391.61374     -2305.0554     -1905.2055    
   1252000   285.20745      675.51196     -2308.2843     -1940.1697    
   1252500   290.01498      355.67187     -2330.9214     -1956.6017    
   1253000   303.76566      544.52825     -2311.0087     -1918.9412    
   1253500   304.94608     -59.89699      -2304.184      -1910.5929    
   1254000   300.85445     -196.04322     -2323.6625     -1935.3525    
   1254500   309.70566      293.01716     -2307.9286     -1908.1943    
   1255000   302.09861     -453.36952     -2328.5107     -1938.5948    
   1255500   278.38654      1077.5853     -2326.6186     -1967.3077    
   1256000   314.44392      918.61455     -2315.6885     -1909.8387    
   1256500   299.08039      1659.7369     -2309.4366     -1923.4163    
   1257000   311.97433      1602.1986     -2347.9681     -1945.3057    
   1257500   296.90629      384.47478     -2305.3202     -1922.106     
   1258000   308.87028      1306.9504     -2259.3578     -1860.7017    
   1258500   309.01887      1888.5825     -2308.6438     -1909.796     
   1259000   289.25697     -141.49537     -2302.2581     -1928.9168    
   1259500   277.49804     -428.31733     -2329.3281     -1971.1639    
   1260000   296.73839      1552.2819     -2327.3328     -1944.3353    
   1260500   312.84755      2641.9323     -2322.9812     -1919.1918    
   1261000   294.18428      1414.3744     -2319.78       -1940.079     
   1261500   284.81304      1636.959      -2315.9084     -1948.3028    
   1262000   297.49438      61.501275     -2288.2389     -1904.2656    
   1262500   314.96379      546.64255     -2324.3807     -1917.8598    
   1263000   273.17083      707.64877     -2303.332      -1950.7529    
   1263500   315.86729      1037.927      -2310.2885     -1902.6015    
   1264000   282.765        267.68351     -2284.235      -1919.2728    
   1264500   298.95798      1124.04       -2317.34       -1931.4777    
   1265000   278.97959      1589.133      -2313.443      -1953.3666    
   1265500   293.5075       1409.6629     -2286.5503     -1907.7229    
   1266000   300.94177     -74.05342      -2315.2554     -1926.8327    
   1266500   290.11886      1768.3233     -2320.888      -1946.4342    
   1267000   306.13949     -116.55599     -2314.7354     -1919.604     
   1267500   280.43746      1543.6636     -2318.5231     -1956.5651    
   1268000   298.17388      22.030448     -2343.7538     -1958.9035    
   1268500   305.22962      46.363232     -2322.9262     -1928.9691    
   1269000   285.14346      843.39119     -2317.4838     -1949.4517    
   1269500   282.17699     -317.82323     -2335.6357     -1971.4325    
   1270000   308.52804      1789.6058     -2322.5585     -1924.3442    
   1270500   306.63217      701.45871     -2314.1012     -1918.3339    
   1271000   291.37516     -527.24917     -2344.9623     -1968.8871    
   1271500   305.1486       1063.881      -2317.933      -1924.0805    
   1272000   300.65062      475.7789      -2301.9914     -1913.9444    
   1272500   277.83281      235.95226     -2308.0537     -1949.4574    
   1273000   304.83979      701.25407     -2336.5245     -1943.0706    
   1273500   318.59893     -310.75556     -2317.7606     -1906.5479    
   1274000   290.69596      2109.94       -2317.5761     -1942.3775    
   1274500   285.00015      998.4638      -2339.8851     -1972.0381    
   1275000   307.28944      1284.7736     -2305.0306     -1908.415     
   1275500   304.29969      314.33888     -2303.5122     -1910.7554    
   1276000   275.12427      805.83631     -2318.4476     -1963.3473    
   1276500   301.14702      1434.8532     -2326.9962     -1938.3085    
   1277000   299.15613      422.51249     -2304.8661     -1918.7481    
   1277500   313.70555      415.88901     -2295.1527     -1890.2559    
   1278000   304.03821     -51.171464     -2336.8238     -1944.4045    
   1278500   322.38267      1790.6593     -2323.0512     -1906.9548    
   1279000   305.07005     -8.4932973     -2338.1232     -1944.3722    
   1279500   285.80024      298.99188     -2323.7754     -1954.8957    
   1280000   305.51287      362.07482     -2306.1692     -1911.8466    
   1280500   288.72014      1772.743      -2304.1101     -1931.4617    
   1281000   285.59422      1374.6159     -2350.4611     -1981.8472    
   1281500   303.70858      508.94074     -2335.1166     -1943.1228    
   1282000   323.10265      54.839919     -2339.9519     -1922.9263    
   1282500   297.75979     -236.25194     -2359.857      -1975.5412    
   1283000   298.93557     -79.138849     -2330.7092     -1944.8759    
   1283500   324.10145      1227.7985     -2332.1903     -1913.8756    
   1284000   296.71755      1314.3613     -2310.0098     -1927.0392    
   1284500   293.14111      464.15763     -2339.8478     -1961.4933    
   1285000   305.07161      1139.5318     -2306.4987     -1912.7456    
   1285500   287.3064       1571.6551     -2310.5332     -1939.7095    
   1286000   281.69743      1002.1604     -2323.2815     -1959.6973    
   1286500   291.07556      702.09781     -2291.4195     -1915.731     
   1287000   303.39632     -135.23818     -2349.9298     -1958.3389    
   1287500   327.0644       1299.758      -2343.8806     -1921.7416    
   1288000   316.67393      620.83307     -2318.3675     -1909.6394    
   1288500   281.99048      1798.8841     -2321.3337     -1957.3712    
   1289000   300.25977      1554.707      -2319.6036     -1932.0611    
   1289500   326.3219       488.96446     -2290.7252     -1869.5446    
   1290000   285.98857      578.17783     -2278.0591     -1908.9363    
   1290500   307.30047      942.18784     -2331.5671     -1934.9372    
   1291000   310.00226      916.30675     -2346.8689     -1946.7519    
   1291500   316.48053      889.6178      -2343.9867     -1935.5082    
   1292000   337.22765      2578.8967     -2328.0124     -1892.7558    
   1292500   303.49406      1178.9086     -2340.4897     -1948.7727    
   1293000   301.6735       1127.1181     -2321.0326     -1931.6654    
   1293500   326.37214      953.50529     -2308.7185     -1887.473     
   1294000   293.40307      1379.1813     -2311.5802     -1932.8875    
   1294500   316.43697      701.015       -2347.6711     -1939.2488    
   1295000   288.21332     -2.4463231     -2333.4991     -1961.5048    
   1295500   294.8175       1857.1115     -2341.834      -1961.3158    
   1296000   320.96225      628.29583     -2322.8508     -1908.5878    
   1296500   300.88486      719.53484     -2322.7825     -1934.4332    
   1297000   280.18193      430.28147     -2330.2771     -1968.6489    
   1297500   299.6462       1276.7049     -2315.7314     -1928.9808    
   1298000   302.36465     -383.40697     -2321.1161     -1930.8569    
   1298500   296.99192      3054.892      -2348.3998     -1965.075     
   1299000   296.22123     -38.911806     -2293.4687     -1911.1387    
   1299500   308.29073      311.37081     -2316.0618     -1918.1538    
   1300000   292.90821      444.83881     -2345.962      -1967.9081    
   1300500   291.32622      279.95132     -2354.3242     -1978.3122    
   1301000   317.26881      743.80061     -2345.1487     -1935.6528    
   1301500   302.25749      2913.3503     -2307.8241     -1917.7032    
   1302000   290.27806      567.22623     -2345.7434     -1971.0842    
   1302500   293.15364      2356.3859     -2328.9802     -1950.6095    
   1303000   321.74322     -349.9742      -2331.517      -1916.246     
   1303500   310.58949      435.05328     -2331.2749     -1930.3999    
   1304000   289.15251      997.18836     -2331.767      -1958.5605    
   1304500   294.72386      2125.2386     -2346.7575     -1966.3602    
   1305000   322.97869      1505.2087     -2332.5442     -1915.6786    
   1305500   301.6162       2344.9301     -2308.8403     -1919.5471    
   1306000   295.50597      694.56645     -2363.5872     -1982.1804    
   1306500   316.21747     -666.33309     -2348.6858     -1940.5469    
   1307000   291.49804      1550.777      -2300.3424     -1924.1086    
   1307500   294.65989     -328.57648     -2279.136      -1898.8212    
   1308000   309.22731      461.42789     -2299.2196     -1900.1028    
   1308500   289.8609       1709.8116     -2314.0249     -1939.9041    
   1309000   299.11278      1442.6165     -2314.4863     -1928.4242    
   1309500   310.05494      2060.0072     -2289.5693     -1889.3843    
   1310000   284.47037      985.3022      -2310.7096     -1943.5463    
   1310500   302.13287     -100.42602     -2322.5141     -1932.554     
   1311000   311.63562      1319.5163     -2319.0399     -1916.8146    
   1311500   306.63773      2.0128023     -2366.906      -1971.1315    
   1312000   294.14709      2413.6319     -2323.1977     -1943.5448    
   1312500   292.51774      664.98931     -2295.8589     -1918.3089    
   1313000   303.02877      1117.1598     -2336.4147     -1945.2983    
   1313500   296.30968      1701.4241     -2346.4009     -1963.9568    
   1314000   292.97761      1984.5262     -2302.9043     -1924.7608    
   1314500   306.4598      -179.93935     -2338.7987     -1943.2538    
   1315000   286.39993      829.04681     -2336.0592     -1966.4055    
   1315500   299.67375      1766.5132     -2299.9917     -1913.2056    
   1316000   297.74896      103.00883     -2320.557      -1936.2552    
   1316500   287.60682      1446.899      -2340.2052     -1968.9938    
   1317000   301.65197     -66.569376     -2314.504      -1925.1646    
   1317500   297.79855     -225.8353      -2302.184      -1917.8181    
   1318000   301.40691      1418.3319     -2322.4125     -1933.3894    
   1318500   282.48789      1356.4825     -2330.3946     -1965.7901    
   1319000   314.26691      235.06069     -2313.0381     -1907.4167    
   1319500   292.27186      2559.0031     -2300.7746     -1923.542     
   1320000   292.47772     -174.97594     -2340.4707     -1962.9724    
   1320500   304.85564      1864.5552     -2293.8669     -1900.3925    
   1321000   301.38869     -124.23148     -2315.1847     -1926.1851    
   1321500   291.15732     -194.25276     -2331.2736     -1955.4796    
   1322000   309.20627      1028.4924     -2308.1265     -1909.0368    
   1322500   314.41774      1357.7602     -2308.7154     -1902.8994    
   1323000   301.60236      303.0093      -2329.0395     -1939.7641    
   1323500   302.7311       1589.3851     -2307.7088     -1916.9766    
   1324000   305.67096      1752.4642     -2285.9234     -1891.3967    
   1324500   275.52148      161.34349     -2292.4168     -1936.8038    
   1325000   300.27868      186.21062     -2316.3757     -1928.8088    
   1325500   313.78751      471.3136      -2285.4485     -1880.4458    
   1326000   299.53479     -7.3985154     -2322.808      -1936.2012    
   1326500   310.40475     -90.115774     -2318.4596     -1917.8231    
   1327000   324.56132      481.54937     -2318.4482     -1899.5399    
   1327500   298.33779      2231.3215     -2347.5637     -1962.5019    
   1328000   293.98887      1280.2124     -2299.3874     -1919.9387    
   1328500   299.67755     -119.41132     -2309.1693     -1922.3783    
   1329000   274.32742      614.0278      -2318.5142     -1964.4423    
   1329500   299.77207      1487.0232     -2299.4729     -1912.5598    
   1330000   283.39439      373.74287     -2293.1237     -1927.3492    
   1330500   294.26913      234.10197     -2330.4198     -1950.6094    
   1331000   273.41993      554.70575     -2334.4442     -1981.5436    
   1331500   305.02111      516.84928     -2321.7991     -1928.1111    
   1332000   302.27889      355.34667     -2319.2551     -1929.1065    
   1332500   293.30098      559.61612     -2314.7288     -1936.168     
   1333000   307.01662      1232.2184     -2314.907      -1918.6435    
   1333500   319.86153      2144.325      -2337.1957     -1924.3534    
   1334000   304.80274     -9.2058967     -2355.1289     -1961.7228    
   1334500   307.2112       1283.1711     -2318.409      -1921.8943    
   1335000   286.13834      3480.329      -2271.7252     -1902.4091    
   1335500   308.87395      1329.1299     -2334.2257     -1935.565     
   1336000   306.21935      916.62807     -2338.8329     -1943.5984    
   1336500   297.93843      1390.974      -2295.1797     -1910.6333    
   1337000   298.20077      1411.8225     -2280.6338     -1895.7488    
   1337500   291.3632       1192.8089     -2319.1261     -1943.0663    
   1338000   294.5772      -712.17186     -2305.191      -1924.9829    
   1338500   302.02782      1564.9848     -2315.2669     -1925.4424    
   1339000   296.18739      394.24131     -2350.3508     -1968.0645    
   1339500   282.99955      84.139784     -2281.7275     -1916.4626    
   1340000   302.54082      2189.4086     -2294.9139     -1904.4273    
   1340500   301.58103     -232.81662     -2333.9779     -1944.7301    
   1341000   280.38515      1565.1595     -2253.4683     -1891.5778    
   1341500   303.65131      924.3891      -2294.1145     -1902.1946    
   1342000   303.13922      597.18532     -2331.4505     -1940.1915    
   1342500   297.79537      2699.7122     -2306.1248     -1921.7631    
   1343000   312.74378      1246.3189     -2268.0345     -1864.379     
   1343500   329.4888       1299.6089     -2350.8974     -1925.6292    
   1344000   304.73351      289.35344     -2325.549      -1932.2323    
   1344500   290.93807      1477.0397     -2272.5036     -1896.9926    
   1345000   303.38212      1285.4108     -2311.4752     -1919.9028    
   1345500   302.84057      1323.2885     -2322.3839     -1931.5104    
   1346000   312.06213      917.57811     -2300.8156     -1898.0399    
   1346500   292.33496      2107.3563     -2316.2503     -1938.9363    
   1347000   296.87541      163.02024     -2339.2028     -1956.0284    
   1347500   316.02796      640.12577     -2317.5818     -1909.6875    
   1348000   299.20761      1324.9444     -2310.2081     -1924.0236    
   1348500   291.21843      146.11329     -2347.1086     -1971.2356    
   1349000   295.9942      -1118.9371     -2320.229      -1938.192     
   1349500   292.83167      1200.1413     -2310.5986     -1932.6435    
   1350000   304.87124     -190.82931     -2280.917      -1887.4225    
   1350500   289.37889      1691.7904     -2310.6384     -1937.1397    
   1351000   300.84343      757.41303     -2322.8225     -1934.5267    
   1351500   297.96807      1374.0592     -2285.2131     -1900.6284    
   1352000   315.75503     -191.71776     -2340.9326     -1933.3905    
   1352500   305.38065      579.95812     -2319.6184     -1925.4665    
   1353000   316.72272      1487.4668     -2283.3829     -1874.5919    
   1353500   302.08269      36.506967     -2325.9881     -1936.0928    
   1354000   298.63621      879.97002     -2318.9328     -1933.4858    
   1354500   296.37478      130.16086     -2287.3891     -1904.8609    
   1355000   290.68537      155.48806     -2342.8715     -1967.6866    
   1355500   318.60745      1004.8702     -2337.0715     -1925.8478    
   1356000   287.37867      939.02949     -2303.4809     -1932.5639    
   1356500   311.79855      226.79812     -2307.0464     -1904.6109    
   1357000   302.25219     -648.80096     -2290.0255     -1899.9114    
   1357500   298.95392      783.48296     -2326.8141     -1940.957     
   1358000   308.24558      1259.4568     -2307.0369     -1909.1872    
   1358500   318.68179      505.48714     -2283.0372     -1871.7175    
   1359000   293.97369      804.51561     -2315.9625     -1936.5334    
   1359500   305.63106      251.42898     -2352.1973     -1957.7221    
   1360000   306.78737      1832.2329     -2312.8226     -1916.8549    
   1360500   293.63022      1843.4996     -2290.5005     -1911.5146    
   1361000   305.21         498.66741     -2363.3911     -1969.4594    
   1361500   271.41181     -403.40564     -2333.5595     -1983.2508    
   1362000   305.38694      299.72396     -2322.14       -1927.9799    
   1362500   304.55634      1497.9494     -2295.2006     -1902.1125    
   1363000   306.78237     -586.33505     -2349.1133     -1953.1521    
   1363500   295.37222      2486.3909     -2326.1183     -1944.8841    
   1364000   302.01879      2754.2244     -2316.3411     -1926.5283    
   1364500   288.19719      2305.9965     -2336.8625     -1964.889     
   1365000   301.35432      750.05176     -2356.8438     -1967.8886    
   1365500   301.98961      1309.4065     -2326.4228     -1936.6476    
   1366000   305.43672      831.71433     -2315.2977     -1921.0733    
   1366500   299.88381      3067.1225     -2262.2376     -1875.1803    
   1367000   302.32283      2116.7822     -2331.133      -1940.9278    
   1367500   302.01194      348.2258      -2319.5191     -1929.7151    
   1368000   311.04701      322.92229     -2297.819      -1896.3535    
   1368500   296.00651      1051.867      -2312.1841     -1930.1313    
   1369000   312.50635      1638.2861     -2335.3077     -1931.9586    
   1369500   297.81086      2068.1701     -2273.4001     -1889.0184    
   1370000   301.74024      900.52878     -2297.3931     -1907.9397    
   1370500   301.31097     -1113.6694     -2317.3161     -1928.4168    
   1371000   323.43455      1853.9652     -2327.5391     -1910.0851    
   1371500   332.37305      1216.0614     -2290.1363     -1861.1455    
   1372000   291.71101      357.05048     -2302.5118     -1926.0031    
   1372500   307.93344      1721.9072     -2336.1791     -1938.7322    
   1373000   285.82571     -209.75568     -2337.1241     -1968.2115    
   1373500   307.98449      409.79019     -2311.1461     -1913.6333    
   1374000   292.34408     -254.36593     -2276.8736     -1899.5478    
   1374500   296.9866       1984.0385     -2338.4438     -1955.1259    
   1375000   286.97659      2206.0478     -2323.2408     -1952.8428    
   1375500   309.76572      635.8563      -2309.9754     -1910.1636    
   1376000   308.04249      1263.5732     -2328.292      -1930.7044    
   1376500   288.63763      2051.2995     -2328.1862     -1955.6443    
   1377000   310.49117      1422.42       -2298.7434     -1897.9953    
   1377500   310.70694      111.24768     -2309.6928     -1908.6662    
   1378000   275.31586      624.17749     -2304.6344     -1949.2867    
   1378500   304.55003      86.617669     -2304.1687     -1911.0888    
   1379000   329.74556      879.18857     -2293.2763     -1867.6767    
   1379500   290.10552      1963.3273     -2268.7842     -1894.3477    
   1380000   293.49363     -177.41239     -2323.6212     -1944.8117    
   1380500   294.23204      1042.5724     -2336.4193     -1956.6567    
   1381000   325.03346      469.07921     -2323.9326     -1904.415     
   1381500   296.82305      1103.994      -2308.8861     -1925.7793    
   1382000   285.30739      290.20843     -2315.2688     -1947.0252    
   1382500   296.34024      675.92204     -2341.1044     -1958.6208    
   1383000   286.81194      304.78889     -2277.6559     -1907.4704    
   1383500   325.60861      473.42242     -2333.4221     -1913.162     
   1384000   298.30114      145.15174     -2329.7292     -1944.7147    
   1384500   304.40263      871.81831     -2322.922      -1930.0323    
   1385000   307.39294      287.1987      -2280.8698     -1884.1206    
   1385500   289.64917      753.7234      -2304.2298     -1930.3823    
   1386000   304.18801      487.32945     -2329.2498     -1936.6371    
   1386500   301.65681     -27.42326      -2378.3906     -1989.0449    
   1387000   296.64781      889.33054     -2328.3574     -1945.4768    
   1387500   307.29162      2821.6213     -2318.3533     -1921.7349    
   1388000   323.73849      364.28463     -2308.329      -1890.4827    
   1388500   301.38304      53.474272     -2279.9562     -1890.9639    
   1389000   309.78673     -302.00001     -2334.9901     -1935.1512    
   1389500   290.62564      1282.544      -2315.9346     -1940.8267    
   1390000   307.27242      1586.7279     -2298.4643     -1901.8706    
   1390500   310.72752      1210.4975     -2314.8314     -1913.7783    
   1391000   297.53673      952.07987     -2331.1723     -1947.1444    
   1391500   308.75201      701.72318     -2314.9355     -1916.4322    
   1392000   301.99695      1063.8256     -2336.8806     -1947.0959    
   1392500   280.89955      1492.2084     -2336.1402     -1973.5858    
   1393000   306.05701      1983.9915     -2316.3173     -1921.2924    
   1393500   299.02575      47.307352     -2319.9937     -1934.044     
   1394000   304.88599      393.28749     -2334.97       -1941.4565    
   1394500   297.2743       200.90505     -2295.7212     -1912.032     
   1395000   301.78176      2405.6392     -2306.7222     -1917.2153    
   1395500   287.941        755.58911     -2322.6135     -1950.9707    
   1396000   300.83124      1357.6145     -2302.1084     -1913.8283    
   1396500   325.74954      1794.4709     -2266.0369     -1845.595     
   1397000   310.73591      752.37593     -2298.3479     -1897.2839    
   1397500   307.03549      2222.1661     -2339.7022     -1943.4143    
   1398000   293.74046      1382.3526     -2311.1774     -1932.0493    
   1398500   310.31659      1427.6038     -2300.3656     -1899.8428    
   1399000   283.7918       2299.9225     -2308.0001     -1941.7126    
   1399500   302.08132      516.58777     -2320.7189     -1930.8254    
   1400000   301.88818      798.45584     -2313.5462     -1923.9019    
   1400500   302.81009      901.07281     -2335.129      -1944.2948    
   1401000   279.35145      730.20477     -2318.3307     -1957.7744    
   1401500   294.87004      287.51595     -2296.748      -1916.162     
   1402000   299.87297      1334.1886     -2323.8567     -1936.8135    
   1402500   298.57091     -16.856584     -2338.7215     -1953.3588    
   1403000   305.87409      144.3361      -2306.4899     -1911.701     
   1403500   296.67951      1472.3185     -2287.0902     -1904.1687    
   1404000   291.83203      91.500538     -2317.6509     -1940.986     
   1404500   289.12528     -430.92709     -2325.0481     -1951.8768    
   1405000   292.81909      319.55137     -2302.5615     -1924.6226    
   1405500   303.22833      941.31555     -2305.6838     -1914.3098    
   1406000   294.04704      336.42381     -2290.0301     -1910.5063    
   1406500   311.03263      316.16073     -2325.5164     -1924.0694    
   1407000   298.22661      1308.3249     -2337.6046     -1952.6863    
   1407500   305.12801      673.32109     -2283.1981     -1889.3722    
   1408000   313.35478      1645.0015     -2310.8294     -1906.3852    
   1408500   297.5256       422.38181     -2322.1312     -1938.1177    
   1409000   283.81169      1163.957      -2294.0438     -1927.7307    
   1409500   306.28079      403.65529     -2273.3401     -1878.0263    
   1410000   312.0171       1330.904      -2325.5636     -1922.846     
   1410500   279.11789      3194.5658     -2293.1669     -1932.9121    
   1411000   295.76778      1069.8487     -2265.0444     -1883.2996    
   1411500   294.91082      1275.6178     -2269.8278     -1889.1891    
   1412000   296.03044      250.86189     -2312.1257     -1930.0419    
   1412500   307.44367      373.18465     -2316.8219     -1920.0072    
   1413000   312.09752      600.90816     -2286.5801     -1883.7587    
   1413500   296.54987      1385.7606     -2326.6804     -1943.9262    
   1414000   298.45945      2265.472      -2314.501      -1929.2822    
   1414500   297.91642      786.96947     -2313.1021     -1928.5841    
   1415000   291.89057      1470.4362     -2334.8145     -1958.074     
   1415500   292.67079      430.96411     -2305.1673     -1927.4198    
   1416000   308.28214      318.06709     -2325.3224     -1927.4255    
   1416500   271.5226      -1115.4992     -2326.6663     -1976.2146    
   1417000   298.7618       877.49254     -2312.9377     -1927.3286    
   1417500   307.1989      -1080.4104     -2340.6789     -1944.1802    
   1418000   307.66577      1139.8742     -2328.2059     -1931.1046    
   1418500   319.64466      125.21646     -2296.3155     -1883.7531    
   1419000   298.43817      1918.9119     -2301.3608     -1916.1694    
   1419500   311.85956      118.41588     -2329.4213     -1926.907     
   1420000   282.89109      33.712415     -2310.7575     -1945.6325    
   1420500   292.85431      162.43355     -2323.6564     -1945.672     
   1421000   308.88696      1830.79       -2294.6138     -1895.9363    
   1421500   290.57963      639.85771     -2306.105      -1931.0566    
   1422000   287.39945      2576.4683     -2311.2458     -1940.302     
   1422500   307.89433      1013.4276     -2304.566      -1907.1696    
   1423000   326.28864      2560.7311     -2272.6795     -1851.5418    
   1423500   302.48764      4134.0382     -2293.1253     -1902.7073    
   1424000   297.24356      2538.2301     -2323.8316     -1940.1821    
   1424500   311.62671     -1091.4797     -2314.9857     -1912.772     
   1425000   324.35156      1373.4149     -2284.9137     -1866.2761    
   1425500   310.2592       250.16324     -2316.3859     -1915.9372    
   1426000   284.33609      400.77793     -2313.6505     -1946.6605    
   1426500   285.04518     -203.08721     -2295.7719     -1927.8668    
   1427000   314.06355      2444.8892     -2304.6825     -1899.3236    
   1427500   309.33398      614.72388     -2336.6877     -1937.4332    
   1428000   297.31953      234.39541     -2319.66       -1935.9124    
   1428500   310.99824     -1005.1508     -2309.9204     -1908.5178    
   1429000   305.13165      196.98498     -2269.1571     -1875.3266    
   1429500   313.49558      1437.6498     -2327.0763     -1922.4505    
   1430000   287.1145       1714.6599     -2311.208      -1940.6319    
   1430500   310.7704       2292.4459     -2297.1847     -1896.0763    
   1431000   308.15508      1958.1643     -2324.8295     -1927.0966    
   1431500   301.52097      2537.6316     -2321.9972     -1932.8269    
   1432000   291.95339      494.99785     -2365.978      -1989.1565    
   1432500   304.12849      1662.6536     -2345.9004     -1953.3646    
   1433000   299.6908       1274.6849     -2315.9313     -1929.1232    
   1433500   306.63498      1864.3235     -2318.1374     -1922.3665    
   1434000   291.43025      454.64069     -2342.691      -1966.5447    
   1434500   308.98168      1423.4726     -2314.4452     -1915.6454    
   1435000   303.04525      1948.2316     -2313.3953     -1922.2576    
   1435500   282.39786     -340.99705     -2340.3255     -1975.8372    
   1436000   294.66831      2168.2271     -2335.9826     -1955.6569    
   1436500   305.46812      1508.2106     -2316.7092     -1922.4443    
   1437000   284.23174      86.669963     -2308.7575     -1941.9023    
   1437500   307.29988     -188.11717     -2366.8957     -1970.2666    
   1438000   299.84664      164.06828     -2321.7732     -1934.7639    
   1438500   302.48669      2019.142      -2315.257      -1924.8402    
   1439000   316.59296     -9.3080043     -2324.7747     -1916.1511    
   1439500   298.82179      2305.5356     -2296.4826     -1910.7961    
   1440000   298.22055      498.51093     -2337.4738     -1952.5633    
   1440500   284.6518       1757.6255     -2310.2054     -1942.8079    
   1441000   299.19429      2297.2238     -2294.9546     -1908.7873    
   1441500   302.00028      1469.4507     -2326.8156     -1937.0266    
   1442000   286.76706     -963.23028     -2349.9045     -1979.777     
   1442500   304.23771      546.66336     -2308.6915     -1916.0147    
   1443000   295.89863     -221.10177     -2304.0218     -1922.1082    
   1443500   287.10987      406.70635     -2323.5889     -1953.0188    
   1444000   295.05657      972.06298     -2295.7382     -1914.9114    
   1444500   307.92418      991.4484      -2289.3381     -1891.9032    
   1445000   322.20059      1044.8315     -2358.7561     -1942.8948    
   1445500   316.7214       563.91248     -2346.7744     -1937.985     
   1446000   315.06753      705.18001     -2307.8073     -1901.1525    
   1446500   302.84972      1272.3217     -2302.4732     -1911.5878    
   1447000   277.94437      972.11143     -2305.9149     -1947.1747    
   1447500   314.57433      1447.4706     -2299.7446     -1893.7264    
   1448000   315.90375      2126.3788     -2264.5904     -1856.8563    
   1448500   296.69292      3257.4631     -2295.7007     -1912.7619    
   1449000   300.27639      473.39826     -2341.8613     -1954.2973    
   1449500   293.59934      251.83374     -2338.3231     -1959.3772    
   1450000   286.76161      193.13598     -2311.8358     -1941.7153    
   1450500   307.22757      198.75251     -2304.354      -1907.8182    
   1451000   331.58518      1258.0875     -2289.0067     -1861.0328    
   1451500   293.04733      1738.1461     -2298.9156     -1920.6822    
   1452000   289.48065      550.73516     -2324.22       -1950.59      
   1452500   299.74618     -51.986051     -2336.2338     -1949.3542    
   1453000   322.4241       527.71176     -2320.5128     -1904.363     
   1453500   288.3203       92.348883     -2314.65       -1942.5176    
   1454000   293.39537      1148.7509     -2332.4821     -1953.7994    
   1454500   299.58319      1648.2933     -2301.5755     -1914.9063    
   1455000   317.89012      1633.0888     -2317.1749     -1906.8771    
   1455500   292.41783      2221.2388     -2324.0212     -1946.6002    
   1456000   307.01998      1037.3342     -2292.0101     -1895.7423    
   1456500   305.20449      1293.8254     -2305.3096     -1911.385     
   1457000   296.91922      1006.1287     -2326.9417     -1943.7108    
   1457500   298.91234      658.13258     -2315.3518     -1929.5484    
   1458000   316.82284      1644.1697     -2284.8749     -1875.9546    
   1458500   289.53221     -39.475224     -2307.5225     -1933.8259    
   1459000   297.61529     -68.214921     -2332.1521     -1948.0228    
   1459500   309.0583       1275.4278     -2311.9619     -1913.0632    
   1460000   295.36514     -90.940034     -2292.8109     -1911.5859    
   1460500   281.53541      783.92938     -2304.412      -1941.0368    
   1461000   286.76876      509.64687     -2299.1102     -1928.9804    
   1461500   303.86734      2570.1387     -2277.7726     -1885.5739    
   1462000   341.53643      2801.053      -2271.9393     -1831.1214    
   1462500   302.74126      1264.2451     -2291.0196     -1900.2743    
   1463000   300.59525      1259.2678     -2332.563      -1944.5874    
   1463500   285.39059      1413.5479     -2310.2294     -1941.8784    
   1464000   313.04967      1708.4009     -2293.4815     -1889.4312    
   1464500   291.90904      1160.1084     -2309.6274     -1932.8631    
   1465000   281.65118     -708.48483     -2301.3989     -1937.8744    
   1465500   296.88352      1161.3717     -2278.5944     -1895.4096    
   1466000   311.31269      1908.2982     -2272.8674     -1871.059     
   1466500   302.13364      904.73547     -2317.8924     -1927.9313    
   1467000   300.43575      1383.6659     -2299.9312     -1912.1616    
   1467500   315.84339     -140.58345     -2302.1641     -1894.508     
   1468000   312.01594      2055.2954     -2314.5511     -1911.835     
   1468500   297.03498      928.23122     -2322.2431     -1938.8628    
   1469000   288.23219     -1028.4486     -2356.3604     -1984.3418    
   1469500   297.31999      1147.5097     -2322.5551     -1938.8069    
   1470000   327.03775      935.42933     -2328.047      -1905.9424    
   1470500   281.78164      2905.3117     -2307.5836     -1943.8906    
   1471000   291.76811      295.53606     -2332.8761     -1956.2937    
   1471500   304.43207      1713.1693     -2315.3728     -1922.4452    
   1472000   293.62175      1326.5769     -2311.425      -1932.4501    
   1472500   291.53362      1733.6982     -2345.3385     -1969.0587    
   1473000   310.7027       1623.3065     -2321.4556     -1920.4345    
   1473500   293.20482     -262.04076     -2300.4926     -1922.0559    
   1474000   291.5681       1288.8253     -2350.6283     -1974.304     
   1474500   302.64437      399.85245     -2344.0972     -1953.4769    
   1475000   286.87389      158.39187     -2314.4518     -1944.1863    
   1475500   284.18462      2043.0244     -2276.9697     -1910.1752    
   1476000   295.34411      1099.2998     -2256.5998     -1875.4018    
   1476500   304.63083      2030.8397     -2322.9297     -1929.7455    
   1477000   287.5043       691.54693     -2302.9659     -1931.8867    
   1477500   335.14251      1646.1642     -2307.6372     -1875.0719    
   1478000   322.46487      666.50679     -2326.7272     -1910.5248    
   1478500   309.75281      658.84501     -2328.01       -1928.2149    
   1479000   301.6581       1756.4755     -2293.6882     -1904.3409    
   1479500   320.05771     -105.63196     -2318.5892     -1905.4936    
   1480000   290.75866      1708.8234     -2313.1687     -1937.8892    
   1480500   292.31636      144.9225      -2306.1525     -1928.8624    
   1481000   312.0169       297.34169     -2282.4951     -1879.7778    
   1481500   296.63141     -331.20172     -2305.8234     -1922.964     
   1482000   303.22987      116.7095      -2325.7587     -1934.3827    
   1482500   308.55152      1183.0903     -2306.0605     -1907.8159    
   1483000   298.67362     -106.67469     -2298.7906     -1913.2954    
   1483500   291.71701      1035.7863     -2333.1083     -1956.5918    
   1484000   309.55255      583.93544     -2321.0136     -1921.477     
   1484500   290.00471      1827.6488     -2307.3017     -1932.9953    
   1485000   292.663        1585.2297     -2302.2709     -1924.5335    
   1485500   312.01302      673.20534     -2273.4362     -1870.7239    
   1486000   302.53031      1251.5567     -2291.2783     -1900.8052    
   1486500   289.83389      238.32166     -2309.2003     -1935.1144    
   1487000   279.2248      -381.70146     -2325.9835     -1965.5906    
   1487500   308.27079      984.45097     -2303.7944     -1905.9121    
   1488000   296.08347      1405.5568     -2305.552      -1923.3998    
   1488500   277.91321     -527.97007     -2317.5421     -1958.8421    
   1489000   293.64249     -356.55901     -2278.5007     -1899.4991    
   1489500   295.35639      1860.1663     -2317.5148     -1936.301     
   1490000   292.92789      2957.7124     -2314.4139     -1936.3346    
   1490500   312.18108     -971.40154     -2299.1869     -1896.2577    
   1491000   315.31237      124.07112     -2302.3763     -1895.4055    
   1491500   296.75085      1352.2748     -2309.5982     -1926.5846    
   1492000   307.77433      1446.8018     -2313.6931     -1916.4516    
   1492500   317.21018      2633.9311     -2297.0131     -1887.5928    
   1493000   284.55618      881.49245     -2299.9719     -1932.6979    
   1493500   298.38552      143.97602     -2321.1603     -1936.0368    
   1494000   306.61064     -771.27355     -2279.3701     -1883.6306    
   1494500   287.67708     -24.97398      -2293.8014     -1922.4992    
   1495000   293.92894      1028.317      -2323.1158     -1943.7445    
   1495500   279.69243      119.74848     -2313.0456     -1952.0492    
   1496000   307.07015      1691.5624     -2307.7983     -1911.4657    
   1496500   308.12624      1988.2507     -2331.1286     -1933.4329    
   1497000   287.45781      788.04679     -2354.6368     -1983.6176    
   1497500   298.17335      1733.3217     -2329.5174     -1944.6678    
   1498000   306.85916      386.24765     -2313.4694     -1917.4091    
   1498500   305.69359      748.63335     -2307.5841     -1913.0282    
   1499000   296.85652      1728.0563     -2317.9039     -1934.7539    
   1499500   319.05671      750.33921     -2328.7976     -1916.9941    
   1500000   297.49418      1511.8552     -2332.2711     -1948.2982    
   1500500   309.28367     -1441.2615     -2342.1507     -1942.9611    
   1501000   308.08545      873.7047      -2312.5377     -1914.8947    
   1501500   294.61391      419.11485     -2307.5499     -1927.2944    
   1502000   324.17994      2152.5105     -2309.3276     -1890.9116    
   1502500   306.30359      1705.1779     -2292.388      -1897.0448    
   1503000   285.62104      330.34102     -2308.0401     -1939.3917    
   1503500   311.4168       1021.5144     -2307.5435     -1905.6007    
   1504000   309.47941      1772.3186     -2317.6747     -1918.2325    
   1504500   290.21293      234.30569     -2331.7659     -1957.1907    
   1505000   319.78831      369.52134     -2323.8289     -1911.0811    
   1505500   309.86822      220.05853     -2316.6413     -1916.6973    
   1506000   301.37833      115.71813     -2368.4376     -1979.4514    
   1506500   309.04586      1763.8414     -2334.7208     -1935.8382    
   1507000   297.26148      1828.0259     -2303.6338     -1919.9612    
   1507500   315.59643      925.58699     -2300.7369     -1893.3995    
   1508000   313.98671      1181.1353     -2276.3077     -1871.0479    
   1508500   296.3208       486.11113     -2313.5183     -1931.0598    
   1509000   292.60813      955.02344     -2309.6145     -1931.9479    
   1509500   312.32123      457.7647      -2282.4763     -1879.3662    
   1510000   291.33784      2209.334      -2284.1605     -1908.1335    
   1510500   318.09089      683.09341     -2338.3576     -1927.8007    
   1511000   288.74469      229.90159     -2338.9896     -1966.3095    
   1511500   315.62348     -63.999776     -2331.0776     -1923.7053    
   1512000   292.02449      810.90512     -2301.7989     -1924.8856    
   1512500   299.83827     -252.64173     -2312.4127     -1925.4142    
   1513000   317.6536       1213.4413     -2294.2001     -1884.2076    
   1513500   300.72846      977.66069     -2303.9494     -1915.802     
   1514000   280.83818      2278.0092     -2305.8229     -1943.3477    
   1514500   322.7693       2390.1963     -2316.8343     -1900.239     
   1515000   279.74992      248.65203     -2307.2066     -1946.136     
   1515500   286.21232      373.02655     -2316.1861     -1946.7745    
   1516000   317.99848      693.62844     -2304.691      -1894.2533    
   1516500   319.95525      429.30073     -2297.8204     -1884.8571    
   1517000   301.953        827.591       -2310.2623     -1920.5343    
   1517500   294.12976      1098.53       -2330.8033     -1951.1728    
   1518000   290.24294      654.27208     -2318.0635     -1943.4497    
   1518500   317.0707      -650.15172     -2313.2907     -1904.0505    
   1519000   296.65163     -574.29087     -2334.6099     -1951.7243    
   1519500   302.50676      57.45026      -2329.6614     -1939.2188    
   1520000   304.95049      674.67913     -2286.6643     -1893.0675    
   1520500   297.45541      1603.3646     -2291.3247     -1907.4018    
   1521000   307.70655      447.76834     -2322.5747     -1925.4207    
   1521500   281.60341      521.15736     -2325.5099     -1962.047     
   1522000   316.54074      1563.7259     -2318.327      -1909.7708    
   1522500   287.74088     -613.13448     -2298.656      -1927.2715    
   1523000   291.33047     -260.50784     -2331.7367     -1955.7192    
   1523500   334.12767      1312.8437     -2321.8618     -1890.6063    
   1524000   282.796        2514.9244     -2298.9496     -1933.9474    
   1524500   298.52679      1822.2776     -2318.9797     -1933.6739    
   1525000   308.01481      1608.3167     -2280.2524     -1882.7005    
   1525500   295.93578      583.67299     -2318.2865     -1936.3249    
   1526000   298.39189      353.16913     -2311.3364     -1926.2048    
   1526500   299.03784      2463.0205     -2291.5004     -1905.5351    
   1527000   307.80354     -714.29312     -2313.4596     -1916.1805    
   1527500   301.7869       1710.0646     -2344.9866     -1955.473     
   1528000   315.2204       1248.8285     -2310.2963     -1903.4442    
   1528500   312.84899      3005.7691     -2305.1303     -1901.339     
   1529000   287.72123      1430.9301     -2310.4922     -1939.1331    
   1529500   293.19582      698.40778     -2313.814      -1935.3888    
   1530000   303.66357      937.01707     -2291.6432     -1899.7074    
   1530500   297.03206      1492.0196     -2326.219      -1942.8425    
   1531000   297.96496      1523.8925     -2323.6612     -1939.0806    
   1531500   318.16137      790.08738     -2295.8399     -1885.192     
   1532000   290.77132     -54.829546     -2310.7821     -1935.4862    
   1532500   298.65691      1296.3316     -2322.467      -1936.9933    
   1533000   299.58584      899.17698     -2292.5726     -1905.8999    
   1533500   296.81189      1014.1045     -2271.6878     -1888.5954    
   1534000   280.2926       985.20645     -2295.6058     -1933.8347    
   1534500   284.43724      879.01961     -2303.6508     -1936.5303    
   1535000   298.19902      374.45458     -2278.2822     -1893.3995    
   1535500   308.62662      1384.191      -2296.2796     -1897.9381    
   1536000   299.1986       1182.6379     -2309.7097     -1923.5368    
   1536500   299.22294     -298.27431     -2306.4144     -1920.2102    
   1537000   310.63451      480.01518     -2286.4791     -1885.546     
   1537500   295.84307      1486.7863     -2316.2242     -1934.3823    
   1538000   297.81077      701.9199      -2311.3541     -1926.9725    
   1538500   322.2785       1078.6719     -2290.9906     -1875.0287    
   1539000   302.58825      763.56466     -2298.797      -1908.2491    
   1539500   294.21724      1612.3973     -2321.251      -1941.5075    
   1540000   300.34263      2129.9992     -2290.0165     -1902.3671    
   1540500   309.94171      844.77978     -2300.003      -1899.9641    
   1541000   285.26618     -148.11644     -2314.7902     -1946.5997    
   1541500   308.50638     -282.25167     -2336.3828     -1938.1965    
   1542000   321.66484      599.34051     -2300.0287     -1884.8589    
   1542500   296.82947      1221.9445     -2310.1099     -1926.9948    
   1543000   301.48269      1521.5529     -2324.5455     -1935.4245    
   1543500   297.63184      362.07565     -2342.3284     -1958.1777    
   1544000   302.44309      292.0977      -2320.7146     -1930.3541    
   1544500   315.97601      264.99659     -2333.8803     -1926.053     
   1545000   299.56504      736.61877     -2315.2191     -1928.5733    
   1545500   321.44554      1113.2827     -2309.9303     -1895.0435    
   1546000   297.60474      180.457       -2321.6629     -1937.5472    
   1546500   309.51659      2917.5411     -2302.1235     -1902.6333    
   1547000   308.6013       1476.94       -2254.8582     -1856.5493    
   1547500   299.59266      649.94493     -2312.5987     -1925.9172    
   1548000   291.92612     -629.9845      -2325.4586     -1948.6723    
   1548500   314.05202      997.0534      -2300.9729     -1895.6289    
   1549000   304.28281      245.54254     -2307.5193     -1914.7843    
   1549500   293.77671      462.67185     -2309.1361     -1929.9612    
   1550000   296.34703      1524.0537     -2310.626      -1928.1336    
   1550500   292.01936      307.68734     -2290.4196     -1913.5129    
   1551000   304.69375      2113.5596     -2292.4867     -1899.2213    
   1551500   296.43393      182.15605     -2332.3615     -1949.757     
   1552000   296.61857      1273.1119     -2311.0403     -1928.1975    
   1552500   307.41131      2406.9598     -2315.0199     -1918.247     
   1553000   310.20232      1260.3088     -2348.3131     -1947.9378    
   1553500   302.55187      1842.8627     -2355.7168     -1965.2159    
   1554000   311.32917      482.45695     -2306.0945     -1904.2648    
   1554500   290.47743      138.22034     -2327.0587     -1952.1422    
   1555000   302.38086      356.731       -2316.9874     -1926.7073    
   1555500   320.42327      273.50224     -2319.2431     -1905.6757    
   1556000   290.07157      962.06807     -2317.5507     -1943.158     
   1556500   311.41866     -85.083417     -2344.7307     -1942.7855    
   1557000   316.21604      1012.3001     -2303.6976     -1895.5605    
   1557500   304.45153      1552.131      -2297.6938     -1904.741     
   1558000   302.0462       560.50508     -2335.5636     -1945.7153    
   1558500   310.05293      678.99364     -2316.1945     -1916.012     
   1559000   308.49154      1574.9434     -2305.4057     -1907.2385    
   1559500   298.88509      2200.5852     -2329.2724     -1943.5042    
   1560000   308.17962      2051.0034     -2322.8532     -1925.0886    
   1560500   302.97869     -545.52625     -2303.0736     -1912.0218    
   1561000   304.13414      484.68773     -2351.4092     -1958.866     
   1561500   311.53842      611.13013     -2310.2254     -1908.1257    
   1562000   310.94977      1381.8        -2312.5002     -1911.1602    
   1562500   300.11735      398.17326     -2334.7361     -1947.3774    
   1563000   305.66336      678.29726     -2315.8469     -1921.33      
   1563500   301.33333      562.90677     -2271.721      -1882.7929    
   1564000   279.10367      608.81681     -2289.1881     -1928.9516    
   1564500   288.72647      1426.5581     -2298.6772     -1926.0206    
   1565000   309.53351     -158.92575     -2264.6192     -1865.1072    
   1565500   305.96944      292.826       -2298.7269     -1903.8149    
   1566000   302.24995      1159.4196     -2329.8933     -1939.7821    
   1566500   284.02105     -1085.1185     -2331.8137     -1965.2303    
   1567000   301.61784      190.7762      -2299.524      -1910.2287    
   1567500   293.60783      346.56205     -2293.0237     -1914.0668    
   1568000   283.62948      1460.4966     -2327.9293     -1961.8513    
   1568500   285.78484      279.52177     -2310.6847     -1941.8248    
   1569000   288.84152      3022.2288     -2290.7522     -1917.9471    
   1569500   293.90555     -334.91146     -2328.9883     -1949.6471    
   1570000   315.37194      928.56757     -2345.8782     -1938.8306    
   1570500   305.208        942.30048     -2296.3971     -1902.4679    
   1571000   294.15071     -212.17109     -2330.9299     -1951.2723    
   1571500   291.34494      1455.1721     -2311.9766     -1935.9403    
   1572000   309.20512      278.95038     -2303.0967     -1904.0085    
   1572500   315.35021      1248.5443     -2290.1906     -1883.171     
   1573000   288.4798       2674.9387     -2288.3304     -1915.9921    
   1573500   287.31378     -410.62052     -2326.798      -1955.9648    
   1574000   284.30074      1196.2304     -2380.8031     -2013.8587    
   1574500   300.20286      796.29274     -2354.7507     -1967.2816    
   1575000   302.97022     -257.06264     -2310.1277     -1919.0868    
   1575500   315.93733      980.44764     -2320.6071     -1912.8298    
   1576000   293.00428     -48.300498     -2347.9363     -1969.7584    
   1576500   284.10533      495.23031     -2299.3955     -1932.7034    
   1577000   311.84625      677.57182     -2320.264      -1917.7669    
   1577500   292.24563      1850.9705     -2349.1583     -1971.9596    
   1578000   313.39024      1115.3695     -2328.7888     -1924.2989    
   1578500   290.71691      379.56383     -2299.8043     -1924.5787    
   1579000   310.35151      644.9766      -2298.1379     -1897.5701    
   1579500   286.30199      2049.1028     -2278.251      -1908.7237    
   1580000   296.28137      1271.7288     -2324.711      -1942.3033    
   1580500   304.48975      1409.337      -2307.1712     -1914.1691    
   1581000   309.38396      1789.9521     -2291.1467     -1891.8277    
   1581500   305.91845      825.21911     -2316.8785     -1922.0324    
   1582000   302.50359     -833.53355     -2298.8951     -1908.4565    
   1582500   319.02753      1153.0667     -2293.7116     -1881.9457    
   1583000   290.55845      995.35543     -2298.0433     -1923.0221    
   1583500   297.75801      3396.3837     -2321.4176     -1937.104     
   1584000   285.09839      541.49816     -2334.887      -1966.9131    
   1584500   316.68472      1221.8468     -2327.1873     -1918.4452    
   1585000   304.09966      568.51268     -2301.6537     -1909.155     
   1585500   293.62348     -585.98521     -2342.788      -1963.8109    
   1586000   300.23632     -1721.2755     -2328.6686     -1941.1564    
   1586500   289.44902      1267.0269     -2293.6747     -1920.0855    
   1587000   297.49177      770.61811     -2348.5697     -1964.5998    
   1587500   298.19277     -646.12661     -2351.3019     -1966.4273    
   1588000   315.86568      3224.6839     -2316.3196     -1908.6347    
   1588500   289.60403      1100.9501     -2320.1275     -1946.3382    
   1589000   293.71521      274.51807     -2314.2603     -1935.1648    
   1589500   297.81288      1895.7403     -2276.5007     -1892.1164    
   1590000   296.50688      1533.9942     -2326.5505     -1943.8518    
   1590500   301.61642      2751.8931     -2332.9723     -1943.6787    
   1591000   313.79518      1363.0918     -2289.0988     -1884.0863    
   1591500   299.93373      508.83164     -2294.7366     -1907.6149    
   1592000   287.50067      1244.9285     -2289.9774     -1918.903     
   1592500   294.67397     -69.481343     -2314.7431     -1934.4102    
   1593000   282.83109     -1410.7738     -2351.4297     -1986.3822    
   1593500   292.2592       983.5378      -2337.3106     -1960.0944    
   1594000   285.08796      1494.9778     -2292.3617     -1924.4013    
   1594500   303.3292       753.39135     -2274.639      -1883.1348    
   1595000   307.08044      416.74234     -2315.3924     -1919.0465    
   1595500   284.69234     -674.52773     -2304.1228     -1936.6731    
   1596000   292.27636      407.28543     -2317.5769     -1940.3385    
   1596500   283.36995      730.2898      -2298.3827     -1932.6397    
   1597000   305.59887      1539.8641     -2281.6367     -1887.2031    
   1597500   310.43482      771.62397     -2337.4704     -1936.795     
   1598000   278.18833      1438.238      -2306.2357     -1947.1806    
   1598500   296.63996      765.47607     -2291.5368     -1908.6663    
   1599000   284.22042      2154.8491     -2313.1211     -1946.2805    
   1599500   286.58718      1756.8136     -2306.3925     -1936.4971    
   1600000   299.03722      569.80362     -2305.694      -1919.7294    
   1600500   324.89029      1111.4885     -2303.8635     -1884.5306    
   1601000   296.1483       1873.7865     -2314.9123     -1932.6764    
   1601500   284.13442      1963.7108     -2300.8343     -1934.1046    
   1602000   314.09004      157.29958     -2295.3677     -1889.9746    
   1602500   294.26432      1711.4117     -2318.6148     -1938.8106    
   1603000   291.74369     -106.82428     -2312.0114     -1935.4605    
   1603500   319.31079      1767.1268     -2291.4612     -1879.3297    
   1604000   295.74769      921.94414     -2302.7404     -1921.0216    
   1604500   298.47109      1590.5568     -2322.5423     -1937.3084    
   1605000   306.79758     -586.59737     -2356.5299     -1960.5491    
   1605500   298.01861      2638.2133     -2291.988      -1907.3381    
   1606000   313.72671      1944.7827     -2331.8388     -1926.9147    
   1606500   287.62347      881.08625     -2351.1345     -1979.9016    
   1607000   298.01391      142.25068     -2330.8364     -1946.1926    
   1607500   278.27141      1130.7142     -2282.5978     -1923.4355    
   1608000   304.60673      1658.9138     -2313.7318     -1920.5787    
   1608500   291.5353       2043.8107     -2346.1715     -1969.8896    
   1609000   297.72141      1605.9663     -2311.1484     -1926.8821    
   1609500   321.96814      1089.4857     -2336.4069     -1920.8456    
   1610000   290.45524      980.74157     -2316.4465     -1941.5586    
   1610500   309.03469      630.23375     -2328.6348     -1929.7666    
   1611000   328.12914     -390.08904     -2316.6976     -1893.1843    
   1611500   312.86981      2907.6103     -2273.8132     -1869.995     
   1612000   299.4337       1620.4622     -2317.915      -1931.4387    
   1612500   294.56438      1672.4808     -2321.4683     -1941.2768    
   1613000   315.44467      232.51398     -2296.6051     -1889.4636    
   1613500   315.31608     -117.86297     -2335.1291     -1928.1535    
   1614000   292.66006      1665.0654     -2311.0431     -1933.3095    
   1614500   316.70971      1788.0196     -2288.6439     -1879.8696    
   1615000   297.37211      1108.4767     -2321.8217     -1938.0063    
   1615500   298.04638      375.46995     -2308.3081     -1923.6224    
   1616000   308.26507      1067.7233     -2288.8383     -1890.9634    
   1616500   283.04298     -403.36266     -2318.3628     -1953.0419    
   1617000   289.68551     -1147.4752     -2294.9404     -1921.046     
   1617500   311.79151      2868.1002     -2280.7257     -1878.2992    
   1618000   310.43776      421.84827     -2324.6849     -1924.0057    
   1618500   287.34724      1715.3553     -2314.1869     -1943.3104    
   1619000   298.48842      2251.3028     -2280.7816     -1895.5254    
   1619500   284.45842     -261.28949     -2315.5903     -1948.4425    
   1620000   286.79101      2189.1465     -2306.0311     -1935.8726    
   1620500   329.48948      854.15068     -2316.4654     -1891.1964    
   1621000   290.08367      1546.5567     -2296.2508     -1921.8425    
   1621500   282.85202      1382.556      -2283.1596     -1918.0851    
   1622000   293.95205     -83.93525      -2292.4906     -1913.0894    
   1622500   294.05233      299.18153     -2333.2729     -1953.7422    
   1623000   305.79706      1429.2339     -2300.1624     -1905.473     
   1623500   300.27054      1113.788      -2309.5635     -1922.0071    
   1624000   295.20651      1055.3643     -2311.9612     -1930.9408    
   1624500   289.98798      2101.4134     -2312.746      -1938.4612    
   1625000   295.23773      320.16945     -2318.5986     -1937.538     
   1625500   318.48225      2715.4302     -2300.0179     -1888.9559    
   1626000   282.57167      2423.5815     -2296.7799     -1932.0673    
   1626500   301.76953      965.44129     -2326.3414     -1936.8502    
   1627000   300.86422      1316.4458     -2304.0381     -1915.7154    
   1627500   286.85222     -513.98182     -2308.5145     -1938.2769    
   1628000   298.9623       84.771797     -2324.2863     -1938.4184    
   1628500   308.28741      850.94528     -2292.1318     -1894.2281    
   1629000   301.39191      531.44126     -2319.017      -1930.0133    
   1629500   290.73135      28.397042     -2311.9909     -1936.7466    
   1630000   309.4125      -1195.4038     -2312.9073     -1913.5515    
   1630500   316.84562      1194.4107     -2297.8312     -1888.8815    
   1631000   301.02651      100.01586     -2334.3714     -1945.8393    
   1631500   299.67344     -384.97514     -2322.4995     -1935.7138    
   1632000   307.92141      519.91352     -2280.0702     -1882.6388    
   1632500   305.77278      1731.6078     -2317.0631     -1922.405     
   1633000   296.15707     -1078.2591     -2316.4731     -1934.2259    
   1633500   294.25848      399.13599     -2323.4859     -1943.6892    
   1634000   290.96252      1395.5469     -2344.3179     -1968.7753    
   1634500   302.81369      1183.0988     -2318.3353     -1927.4965    
   1635000   291.13204      1087.4764     -2309.4179     -1933.6565    
   1635500   300.08801      1651.7513     -2271.8373     -1884.5165    
   1636000   278.57874      2119.6691     -2276.1047     -1916.5457    
   1636500   304.99615      1662.721      -2324.8938     -1931.2381    
   1637000   294.12364      2334.857      -2313.9339     -1934.3113    
   1637500   320.6017       2395.0848     -2339.1699     -1925.3722    
   1638000   291.99901      1606.665      -2333.2042     -1956.3238    
   1638500   298.5283       964.71024     -2306.1612     -1920.8535    
   1639000   318.93455      560.83821     -2329.7003     -1918.0544    
   1639500   311.67982      1312.1721     -2343.9758     -1941.6936    
   1640000   296.26937      258.9013      -2308.9879     -1926.5958    
   1640500   293.74907      210.08769     -2298.4138     -1919.2746    
   1641000   280.96451      54.918953     -2326.0892     -1963.4509    
   1641500   297.89066      949.15955     -2322.812      -1938.3273    
   1642000   295.9887      -437.87986     -2284.1784     -1902.1485    
   1642500   310.40072      296.41319     -2316.3579     -1915.7265    
   1643000   300.59873      342.26277     -2346.3488     -1958.3688    
   1643500   312.32901      925.53971     -2321.9243     -1918.8042    
   1644000   316.5019       1190.9821     -2318.9523     -1910.4463    
   1644500   287.0902       671.09844     -2325.0267     -1954.4821    
   1645000   304.16325      1830.7398     -2297.9848     -1905.4041    
   1645500   311.36052     -135.57174     -2314.3848     -1912.5146    
   1646000   280.24328      532.26315     -2315.0193     -1953.3119    
   1646500   318.42152      2302.428      -2310.095      -1899.1113    
   1647000   285.02087      639.37699     -2285.0249     -1917.1511    
   1647500   293.67319      238.50525     -2330.6346     -1951.5934    
   1648000   305.75305      707.77382     -2292.2646     -1897.632     
   1648500   299.59275      1631.455      -2297.1407     -1910.4591    
   1649000   289.83893      802.71446     -2327.4606     -1953.3682    
   1649500   296.01958      1776.9116     -2306.7267     -1924.657     
   1650000   295.39368     -542.86326     -2322.2005     -1940.9386    
   1650500   275.17078      303.27548     -2332.4168     -1977.2565    
   1651000   304.5823       598.77455     -2331.1069     -1937.9854    
   1651500   299.82297      914.41174     -2289.6833     -1902.7046    
   1652000   304.92593      3050.0275     -2266.7428     -1873.1778    
   1652500   301.67687      136.27065     -2317.6286     -1928.2571    
   1653000   299.07069      1277.625      -2310.6214     -1924.6136    
   1653500   303.34374      586.27682     -2338.0568     -1946.5338    
   1654000   279.92243     -396.44701     -2340.4956     -1979.2023    
   1654500   305.4002       1527.8473     -2316.0736     -1921.8964    
   1655000   303.78307      1049.4799     -2318.7319     -1926.6419    
   1655500   278.94089      1275.4887     -2332.8435     -1972.817     
   1656000   316.93934     -977.60468     -2326.3191     -1917.2485    
   1656500   306.76245      203.25984     -2329.5768     -1933.6414    
   1657000   285.92798      157.45143     -2339.339      -1970.2944    
   1657500   291.20924      1956.6188     -2294.4621     -1918.601     
   1658000   293.25496      1194.865      -2304.3242     -1925.8227    
   1658500   291.18328      624.34012     -2324.7545     -1948.927     
   1659000   287.63402      794.2419      -2337.9196     -1966.673     
   1659500   305.80121      1390.4566     -2304.1641     -1909.4693    
   1660000   287.4936       256.8533      -2309.7353     -1938.67      
   1660500   297.4328       1516.6778     -2377.0803     -1993.1866    
   1661000   293.01069      958.0916      -2339.9263     -1961.7401    
   1661500   296.06276      1292.9291     -2309.0319     -1926.9065    
   1662000   296.33653      642.10277     -2268.8995     -1886.4207    
   1662500   309.61265      1973.0084     -2279.445      -1879.8308    
   1663000   294.20476      1352.8833     -2295.1537     -1915.4263    
   1663500   295.79363      2816.8104     -2325.4941     -1943.716     
   1664000   308.0011      -211.49106     -2298.552      -1901.0178    
   1664500   313.57863      589.34966     -2321.1782     -1916.4452    
   1665000   291.26663      1557.3113     -2319.6763     -1943.7411    
   1665500   309.09514     -57.864529     -2306.355      -1907.4088    
   1666000   293.30308      866.91547     -2272.942      -1894.3784    
   1666500   293.29482      525.45359     -2315.2311     -1936.6782    
   1667000   295.73844      1254.3664     -2314.0747     -1932.3679    
   1667500   296.30641      1642.3132     -2342.136      -1959.6961    
   1668000   276.69102      1334.1892     -2333.2134     -1976.0908    
   1668500   302.81329     -866.77568     -2327.4139     -1936.5756    
   1669000   312.12763      1774.4885     -2317.1809     -1914.3206    
   1669500   296.798        749.0428      -2291.1549     -1908.0805    
   1670000   297.91924      858.70736     -2347.455      -1962.9334    
   1670500   311.44594      667.32177     -2332.0473     -1930.067     
   1671000   288.48591      1876.5537     -2321.3511     -1949.005     
   1671500   292.61868      1439.7922     -2335.0831     -1957.4028    
   1672000   303.48169      1595.0615     -2299.5843     -1907.8833    
   1672500   295.17256      1029.5978     -2303.9486     -1922.9721    
   1673000   289.1885       1547.7305     -2346.6052     -1973.3523    
   1673500   257.90525      815.26095     -2348.4754     -2015.5995    
   1674000   309.36985      661.77676     -2351.4096     -1952.1088    
   1674500   313.4466       1930.318      -2311.0185     -1906.4558    
   1675000   297.64488     -613.08761     -2326.6796     -1942.5121    
   1675500   283.75422     -337.05465     -2337.103      -1970.864     
   1676000   292.36135     -112.66502     -2316.0499     -1938.7018    
   1676500   325.92592     -465.04676     -2332.4295     -1911.76      
   1677000   295.63907      1422.0993     -2312.2163     -1930.6377    
   1677500   273.6525       1140.9249     -2344.4571     -1991.2564    
   1678000   306.87848      738.15763     -2351.9642     -1955.879     
   1678500   286.79077      1117.7559     -2301.9355     -1931.7773    
   1679000   300.73218      2078.0227     -2288.2547     -1900.1025    
   1679500   310.80256     -147.92303     -2291.2168     -1890.0668    
   1680000   285.49192      1116.5408     -2308.4535     -1939.9717    
   1680500   296.51779      1055.0271     -2321.4636     -1938.7508    
   1681000   313.65718      472.13263     -2301.2264     -1896.392     
   1681500   282.26578      536.69284     -2315.9001     -1951.5823    
   1682000   304.4801       1059.0605     -2318.2336     -1925.2439    
   1682500   282.34048     -979.12254     -2302.1851     -1937.7708    
   1683000   283.1834      -907.80615     -2336.861      -1971.3588    
   1683500   290.05721      787.13792     -2315.2016     -1940.8274    
   1684000   314.57532      863.00665     -2319.8866     -1913.8672    
   1684500   303.63778      636.01183     -2328.1885     -1936.286     
   1685000   273.61077      1173.8834     -2339.2833     -1986.1364    
   1685500   291.15631      1630.3279     -2311.1655     -1935.3728    
   1686000   318.02672     -180.29459     -2323.033      -1912.5589    
   1686500   305.72954      370.60228     -2362.9205     -1968.3182    
   1687000   292.74683      948.6861      -2320.3254     -1942.4798    
   1687500   297.30803      964.83283     -2304.1527     -1920.42      
   1688000   303.28563      1068.0909     -2341.1743     -1949.7264    
   1688500   303.37846      519.7604      -2343.5336     -1951.9658    
   1689000   291.92767      1175.8944     -2293.0419     -1916.2535    
   1689500   293.76516     -408.25519     -2322.0998     -1942.9399    
   1690000   275.20607      1904.0478     -2315.4831     -1960.2772    
   1690500   322.52113      1671.4044     -2334.2821     -1918.0071    
   1691000   299.17255      1246.9275     -2339.7288     -1953.5896    
   1691500   281.63599      942.15417     -2371.0626     -2007.5576    
   1692000   287.6846      -431.48117     -2351.8744     -1980.5626    
   1692500   289.82841     -57.05697      -2305.3951     -1931.3162    
   1693000   310.61187      942.3037      -2297.475      -1896.5711    
   1693500   298.93039      1720.9353     -2335.1219     -1949.2952    
   1694000   287.98891      566.76617     -2297.5367     -1925.832     
   1694500   303.47433      574.60927     -2303.9207     -1912.2292    
   1695000   288.53018      1140.7503     -2311.5159     -1939.1127    
   1695500   303.99109      2316.5726     -2348.5838     -1956.2253    
   1696000   299.43321     -252.40076     -2329.7588     -1943.2831    
   1696500   296.92786      1164.6249     -2306.7283     -1923.4863    
   1697000   293.59157      1383.2602     -2339.5725     -1960.6366    
   1697500   306.75446      803.9087      -2302.1094     -1906.1842    
   1698000   306.54313      1277.9534     -2328.8874     -1933.235     
   1698500   300.21266      2075.5611     -2336.3036     -1948.8219    
   1699000   297.00143      899.32294     -2304.4978     -1921.1608    
   1699500   310.08607      676.04168     -2314.8865     -1914.6613    
   1700000   304.33665      611.52809     -2317.2483     -1924.4438    
   1700500   293.44883      1621.7065     -2336.1599     -1957.4082    
   1701000   308.78484      2220.1862     -2310.2179     -1911.6722    
   1701500   297.54441     -77.198275     -2315.3237     -1931.2859    
   1702000   301.6985       1675.6677     -2377.51       -1988.1106    
   1702500   295.93059      479.96228     -2334.1249     -1952.1701    
   1703000   310.12251     -453.4346      -2328.7292     -1928.457     
   1703500   311.11937      538.62952     -2347.5216     -1945.9627    
   1704000   289.37341      1638.8269     -2347.7942     -1974.3027    
   1704500   311.66103      2652.411      -2326.5202     -1924.2622    
   1705000   318.19861     -150.48979     -2342.5579     -1931.8619    
   1705500   282.11419     -100.85276     -2333.6113     -1969.4891    
   1706000   297.57479      2033.3812     -2329.7927     -1945.7157    
   1706500   308.11059      971.00298     -2320.5651     -1922.8896    
   1707000   284.54937      290.86371     -2330.6851     -1963.4198    
   1707500   301.03785      2385.1579     -2300.5554     -1912.0086    
   1708000   300.33329      1078.0233     -2312.9435     -1925.3061    
   1708500   291.18331      1596.8419     -2298.7049     -1922.8773    
   1709000   324.12111      499.23287     -2298.4498     -1880.1097    
   1709500   315.5603       798.16911     -2327.2971     -1920.0064    
   1710000   304.47848      1928.9781     -2343.4746     -1950.4871    
   1710500   313.12943      1371.3789     -2341.2362     -1937.083     
   1711000   298.71829      1773.8915     -2315.8256     -1930.2727    
   1711500   291.6635       8.7057528     -2340.2847     -1963.8373    
   1712000   300.16416      667.12747     -2317.2461     -1929.827     
   1712500   299.54618      135.76564     -2315.2118     -1928.5904    
   1713000   297.61341     -203.80297     -2330.6301     -1946.5032    
   1713500   276.22814      1650.4085     -2291.2547     -1934.7296    
   1714000   305.74218      1247.373      -2294.0117     -1899.3931    
   1714500   279.49622      1005.7938     -2311.256      -1950.5128    
   1715000   295.7569       1862.5631     -2330.243      -1948.5123    
   1715500   296.6976       342.97103     -2308.2742     -1925.3294    
   1716000   295.08106      1570.3514     -2305.378      -1924.5196    
   1716500   281.75887      1286.5606     -2331.851      -1968.1875    
   1717000   293.6239       1380.3451     -2298.5485     -1919.5708    
   1717500   310.07125     -491.21157     -2330.07       -1929.8639    
   1718000   280.67884      633.16695     -2349.9544     -1987.6848    
   1718500   291.48752     -378.84305     -2329.9261     -1953.7058    
   1719000   315.98102     -555.50052     -2322.5988     -1914.765     
   1719500   306.62309      2638.8882     -2320.2476     -1924.492     
   1720000   286.95846      542.98729     -2339.5195     -1969.1449    
   1720500   312.90252      1636.9988     -2324.696      -1920.8356    
   1721000   292.31544     -194.94033     -2303.347      -1926.0582    
   1721500   297.96918      687.03072     -2340.4613     -1955.8752    
   1722000   317.34229      2253.7704     -2318.9271     -1909.3364    
   1722500   317.21636      806.33288     -2326.311      -1916.8828    
   1723000   294.40747      1593.9881     -2319.3119     -1939.3229    
   1723500   313.8608       640.46245     -2317.3191     -1912.2218    
   1724000   307.84415     -269.29447     -2295.847      -1898.5154    
   1724500   287.68185      646.16927     -2322.371      -1951.0627    
   1725000   319.53613     -25.818223     -2319.0426     -1906.6203    
   1725500   311.91208      1419.2732     -2315.7428     -1913.1607    
   1726000   295.27133      2430.3585     -2319.4704     -1938.3664    
   1726500   307.45728      1606.4601     -2325.5127     -1928.6804    
   1727000   299.55133      810.50621     -2282.4645     -1895.8363    
   1727500   284.38452      1402.223      -2293.7695     -1926.7171    
   1728000   285.66065     -515.09549     -2306.4371     -1937.7375    
   1728500   321.31522      1212.9657     -2291.2754     -1876.5568    
   1729000   311.46544      258.47589     -2308.1899     -1906.1844    
   1729500   325.05543      1487.9814     -2334.3817     -1914.8356    
   1730000   304.71111      1213.8701     -2320.2091     -1926.9213    
   1730500   292.14854      1570.5585     -2333.2151     -1956.1417    
   1731000   283.35533      1160.647      -2336.6032     -1970.8791    
   1731500   308.33906      61.33107      -2319.1765     -1921.2061    
   1732000   293.81619      423.73033     -2310.9472     -1931.7214    
   1732500   292.94619      97.602636     -2341.6027     -1963.4998    
   1733000   300.94948      1446.1948     -2306.5319     -1918.0992    
   1733500   320.77095      2026.2454     -2331.6081     -1917.592     
   1734000   291.78456      1153.4781     -2346.2386     -1969.635     
   1734500   298.16923      1375.5314     -2334.7229     -1949.8787    
   1735000   312.01327      128.63869     -2312.7928     -1910.0802    
   1735500   302.83416      1145.2587     -2321.0418     -1930.1766    
   1736000   290.35809      1358.5259     -2344.1288     -1969.3663    
   1736500   309.48692      270.42397     -2336.4497     -1936.9978    
   1737000   293.45937      1547.5582     -2278.8898     -1900.1245    
   1737500   284.63444      813.63119     -2254.6753     -1887.3002    
   1738000   309.92298     -377.32593     -2331.8361     -1931.8214    
   1738500   290.97688     -714.66351     -2324.3709     -1948.8097    
   1739000   302.71869      767.18485     -2282.1311     -1891.4149    
   1739500   306.60138      1887.9128     -2316.771      -1921.0434    
   1740000   284.347       -92.39396      -2337.5964     -1970.5924    
   1740500   295.15061     -279.89619     -2337.2708     -1956.3227    
   1741000   292.79916      874.60022     -2311.2882     -1933.375     
   1741500   296.80862      925.17906     -2318.7931     -1935.705     
   1742000   296.33464      240.53606     -2339.5306     -1957.0543    
   1742500   304.26634      1416.3569     -2302.1099     -1909.3962    
   1743000   293.60634      100.09033     -2316.2542     -1937.2992    
   1743500   289.36261     -983.70883     -2339.4787     -1966.0011    
   1744000   299.10751      497.25007     -2290.502      -1904.4467    
   1744500   320.74803      535.27931     -2341.1877     -1927.2012    
   1745000   283.94081      1349.9781     -2319.569      -1953.0892    
   1745500   314.46616      766.91706     -2336.9944     -1931.1158    
   1746000   308.67674      1496.8082     -2327.2159     -1928.8097    
   1746500   299.78864      2158.851      -2313.5541     -1926.6197    
   1747000   316.98338      1256.7468     -2314.9534     -1905.8258    
   1747500   299.0325       517.48569     -2319.4674     -1933.5089    
   1748000   299.49991      960.17059     -2336.7522     -1950.1904    
   1748500   297.79528      2223.8645     -2292.7873     -1908.4257    
   1749000   323.33203      1621.4795     -2257.5244     -1840.2027    
   1749500   292.46148      634.62188     -2275.0003     -1897.5229    
   1750000   300.69797      1087.0349     -2318.5641     -1930.456     
   1750500   268.24692      1436.5461     -2331.9389     -1985.7151    
   1751000   298.34018      872.32248     -2349.7802     -1964.7153    
   1751500   308.94558      3156.2825     -2324.882      -1926.1288    
   1752000   302.47756      1514.4702     -2288.4353     -1898.0304    
   1752500   309.0914       798.08737     -2274.9241     -1875.9827    
   1753000   295.95375      194.37475     -2325.277      -1943.2922    
   1753500   293.06426      1747.0157     -2329.8591     -1951.6038    
   1754000   320.16564      1619.0653     -2313.7465     -1900.5117    
   1754500   314.08394      990.02043     -2328.9761     -1923.5909    
   1755000   298.03935      887.85538     -2330.9588     -1946.2822    
   1755500   300.35344      1429.4734     -2318.4782     -1930.8148    
   1756000   304.56755      1659.0415     -2308.0901     -1914.9875    
   1756500   283.32897      168.27932     -2327.2846     -1961.5945    
   1757000   302.60666      1135.6726     -2312.1627     -1921.5911    
   1757500   297.38789      1229.6928     -2296.3333     -1912.4975    
   1758000   309.96551      341.1133      -2328.0005     -1927.9309    
   1758500   288.37785      29.589764     -2340.6673     -1968.4607    
   1759000   286.33738      1339.7745     -2286.8677     -1917.2947    
   1759500   298.56272      705.37424     -2303.5311     -1918.1789    
   1760000   299.90607      2410.3578     -2304.3713     -1917.2853    
   1760500   281.4963       698.01157     -2282.144      -1918.8193    
   1761000   269.97593      1670.9052     -2309.6348     -1961.1794    
   1761500   294.81563      510.11655     -2307.2941     -1926.7783    
   1762000   302.12574      1071.4084     -2307.059      -1917.1081    
   1762500   274.06357      372.68579     -2313.4375     -1959.7062    
   1763000   270.29375      154.45019     -2349.276      -2000.4104    
   1763500   310.85017      32.685394     -2345.5027     -1944.2913    
   1764000   300.64806      512.73013     -2312.0876     -1924.0439    
   1764500   316.46072      469.09823     -2334.1949     -1925.742     
   1765000   280.37567      1119.1099     -2329.4241     -1967.5458    
   1765500   303.34365     -209.0697      -2299.5707     -1908.0478    
   1766000   316.39693     -92.836557     -2304.5539     -1896.1833    
   1766500   285.31261      458.66424     -2316.2403     -1947.99      
   1767000   306.94344      1088.0704     -2323.1508     -1926.9817    
   1767500   306.03458      2096.066      -2291.628      -1896.632     
   1768000   299.43129      1529.7532     -2311.76       -1925.2868    
   1768500   294.82041      961.05429     -2325.5465     -1945.0245    
   1769000   335.32297      954.12169     -2316.3043     -1883.506     
   1769500   299.67023     -43.260795     -2302.2087     -1915.4271    
   1770000   294.04415      900.78629     -2316.9052     -1937.3851    
   1770500   285.40537      1128.1902     -2320.1324     -1951.7624    
   1771000   296.75009      1026.1471     -2311.2041     -1928.1915    
   1771500   313.97024      2664.2095     -2320.9379     -1915.6994    
   1772000   284.8004       552.98392     -2328.3364     -1960.7472    
   1772500   292.6446       750.86641     -2316.1799     -1938.4662    
   1773000   303.96117      1797.1173     -2299.1413     -1906.8214    
   1773500   305.30334     -34.437214     -2318.6266     -1924.5744    
   1774000   290.86939      744.20174     -2313.4777     -1938.0552    
   1774500   295.48817      1973.249      -2308.4181     -1927.0343    
   1775000   297.96947      749.89789     -2305.3541     -1920.7677    
   1775500   290.91197      902.06796     -2278.3893     -1902.9119    
   1776000   287.66871      2538.5527     -2295.2202     -1923.9289    
   1776500   293.17667      327.97493     -2321.5058     -1943.1053    
   1777000   313.0656       646.04908     -2298.7478     -1894.6769    
   1777500   292.23666      1443.7078     -2320.5535     -1943.3663    
   1778000   293.5508       1869.681      -2317.3677     -1938.4844    
   1778500   318.90302      1618.7898     -2311.7003     -1900.0952    
   1779000   289.37062      1506.3575     -2324.8281     -1951.3401    
   1779500   285.55809      1198.4949     -2303.7797     -1935.2125    
   1780000   305.48835     -31.96594      -2285.2111     -1890.9201    
   1780500   302.82704      147.80315     -2274.7447     -1883.8887    
   1781000   298.79655     -46.532618     -2313.9168     -1928.2629    
   1781500   293.30971     -63.375968     -2303.5074     -1924.9352    
   1782000   302.14415      1592.2958     -2274.1934     -1884.2187    
   1782500   303.84555      260.60988     -2330.1106     -1937.94      
   1783000   290.11826      516.67742     -2333.9704     -1959.5174    
   1783500   308.61031      614.24128     -2315.9841     -1917.6636    
   1784000   291.28177      1181.5024     -2286.8754     -1910.9207    
   1784500   299.50551     -77.289153     -2353.5696     -1967.0006    
   1785000   277.59057      1732.4811     -2310.9802     -1952.6966    
   1785500   302.28206      762.66015     -2317.7271     -1927.5745    
   1786000   323.38665      2819.707      -2295.8213     -1878.4291    
   1786500   296.45162      1189.1305     -2329.8246     -1947.1973    
   1787000   299.31054      717.84306     -2319.5033     -1933.186     
   1787500   296.86677      1382.5653     -2287.9125     -1904.7493    
   1788000   299.99517      653.35994     -2322.576      -1935.375     
   1788500   285.93836      353.45121     -2314.3755     -1945.3175    
   1789000   315.22272      652.58348     -2307.9122     -1901.0571    
   1789500   317.36294      920.81588     -2331.5554     -1921.938     
   1790000   281.69396      1144.8258     -2303.2014     -1939.6216    
   1790500   326.75192      651.64462     -2318.963      -1897.2273    
   1791000   306.08912      2303.1959     -2326.5295     -1931.4631    
   1791500   286.97118     -1231.3461     -2319.9433     -1949.5523    
   1792000   303.8148       2291.2475     -2303.4369     -1911.306     
   1792500   291.90703      872.71202     -2331.0549     -1954.2931    
   1793000   288.14074      1634.9353     -2310.3041     -1938.4035    
   1793500   303.0915       656.18984     -2304.8848     -1913.6874    
   1794000   305.36396      1131.9278     -2325.5878     -1931.4573    
   1794500   302.74549      1123.1486     -2331.4944     -1940.7436    
   1795000   290.17065      126.49986     -2306.5938     -1932.0732    
   1795500   282.19495      1920.9345     -2272.5827     -1908.3563    
   1796000   285.36132      825.21657     -2287.0204     -1918.7072    
   1796500   301.22401      657.83736     -2330.5099     -1941.7229    
   1797000   309.4518       1399.2756     -2288.1988     -1888.7922    
   1797500   295.43773     -157.59542     -2295.4757     -1914.1569    
   1798000   296.99813      978.12236     -2327.8874     -1944.5546    
   1798500   314.85678      1524.3975     -2312.8867     -1906.504     
   1799000   297.48293      77.412988     -2320.7772     -1936.8187    
   1799500   302.97627      535.39082     -2328.8631     -1937.8144    
   1800000   300.30578      1907.048      -2276.9704     -1889.3685    
   1800500   307.86848      264.31836     -2327.6973     -1930.3343    
   1801000   309.88186      1491.7758     -2345.209      -1945.2473    
   1801500   315.54449     -271.554       -2306.9023     -1899.6319    
   1802000   281.90274      271.39964     -2286.6323     -1922.783     
   1802500   300.95659      1510.2338     -2325.6549     -1937.213     
   1803000   302.98333      514.37927     -2287.5495     -1896.4917    
   1803500   315.73168      281.99736     -2301.3155     -1893.8035    
   1804000   309.64608      631.40466     -2328.6664     -1929.0091    
   1804500   309.26982      531.27519     -2335.9639     -1936.7922    
   1805000   282.96848      636.88735     -2312.9028     -1947.678     
   1805500   300.15714      908.49283     -2305.4683     -1918.0582    
   1806000   315.35504      1096.5982     -2298.8962     -1891.8703    
   1806500   299.29793     -229.98092     -2308.1411     -1921.84      
   1807000   279.64718      2002.3832     -2313.5335     -1952.5954    
   1807500   291.93339     -611.78057     -2366.6457     -1989.85      
   1808000   288.80521      1634.3433     -2314.3786     -1941.6203    
   1808500   313.13227     -400.98506     -2330.9993     -1926.8424    
   1809000   302.12581      3007.4187     -2313.8513     -1923.9003    
   1809500   295.32646      1414.0273     -2303.0478     -1921.8726    
   1810000   287.10734      1668.658      -2326.8525     -1956.2857    
   1810500   294.83567      1630.85       -2337.6762     -1957.1345    
   1811000   304.53421      1925.8064     -2307.0341     -1913.9747    
   1811500   285.57269      187.21545     -2326.9009     -1958.3149    
   1812000   283.6415       1879.6341     -2313.7197     -1947.6263    
   1812500   305.21161     -547.8131      -2323.9157     -1929.9819    
   1813000   300.04598      133.96117     -2299.8107     -1912.5441    
   1813500   290.53175      2506.0891     -2262.6937     -1887.7071    
   1814000   292.16986      207.20922     -2317.1798     -1940.0788    
   1814500   302.51357      703.34932     -2331.1767     -1940.7253    
   1815000   294.73915      334.08519     -2356.0433     -1975.6262    
   1815500   298.43121      849.50684     -2316.6197     -1931.4373    
   1816000   296.09081      2321.8256     -2285.3756     -1903.2139    
   1816500   285.13916     -89.755485     -2319.3869     -1951.3604    
   1817000   275.16887     -172.11343     -2302.1791     -1947.0212    
   1817500   294.56417      1476.1895     -2309.2253     -1929.034     
   1818000   307.8497       277.926       -2339.301      -1941.9623    
   1818500   301.98719      2059.7523     -2324.6592     -1934.8871    
   1819000   322.53773      3585.5859     -2293.8356     -1877.5391    
   1819500   295.89054      57.310292     -2292.4235     -1910.5203    
   1820000   301.92135      368.51085     -2302.6564     -1912.9693    
   1820500   323.85545      529.83865     -2292.8537     -1874.8565    
   1821000   304.17312      1402.2533     -2326.3739     -1933.7805    
   1821500   310.30557      2885.7476     -2335.0705     -1934.562     
   1822000   329.12561      705.61955     -2301.8308     -1877.0314    
   1822500   303.65954      1131.1999     -2319.9111     -1927.9806    
   1823000   288.94212      854.49324     -2322.3043     -1949.3694    
   1823500   320.19113      326.51886     -2325.2011     -1911.9334    
   1824000   284.95095      1816.1535     -2329.257      -1961.4734    
   1824500   293.90551      1757.7727     -2322.5007     -1943.1596    
   1825000   311.45482      274.37428     -2319.1664     -1917.1746    
   1825500   312.57696      1714.6151     -2280.2755     -1876.8354    
   1826000   310.00585      847.55357     -2316.7904     -1916.6687    
   1826500   293.85246      1091.0118     -2317.8945     -1938.6219    
   1827000   303.48892      1030.0272     -2282.945      -1891.2346    
   1827500   310.0846       627.15413     -2307.4498     -1907.2265    
   1828000   306.08167     -151.64126     -2323.3223     -1928.2655    
   1828500   289.70759      521.25782     -2293.8188     -1919.8959    
   1829000   326.36847      176.41268     -2309.8772     -1888.6365    
   1829500   307.13688      764.51571     -2341.1967     -1944.778     
   1830000   292.63344      1648.6404     -2304.104      -1926.4047    
   1830500   294.12216      1404.3232     -2281.5043     -1901.8836    
   1831000   300.21425      831.20443     -2282.1354     -1894.6517    
   1831500   293.99083      986.52918     -2320.1704     -1940.7191    
   1832000   298.69196      1068.0652     -2298.6418     -1913.1229    
   1832500   313.98274      1124.979      -2287.2795     -1882.0249    
   1833000   298.41387      1169.6762     -2308.2825     -1923.1224    
   1833500   308.26458     -194.98745     -2327.689      -1929.8148    
   1834000   311.32266      316.54061     -2313.1481     -1911.3268    
   1834500   310.55764      1393.6993     -2311.1274     -1910.2935    
   1835000   285.49608      696.10072     -2322.3432     -1953.8561    
   1835500   309.81046      1920.8891     -2325.0295     -1925.16      
   1836000   310.86059      1383.9009     -2318.4257     -1917.2008    
   1836500   282.10218      814.07566     -2294.6715     -1930.5648    
   1837000   301.98002      211.28582     -2308.6871     -1918.9242    
   1837500   297.74568      1189.4904     -2317.65       -1933.3524    
   1838000   304.53637      899.22849     -2376.9203     -1983.8581    
   1838500   296.21884      2269.4822     -2337.2499     -1954.923     
   1839000   295.15069      257.69978     -2319.222      -1938.2738    
   1839500   304.11269      450.93488     -2289.5896     -1897.0742    
   1840000   283.85967     -306.18854     -2311.7409     -1945.3659    
   1840500   288.95099      2059.9906     -2290.3813     -1917.4349    
   1841000   292.02635      807.99641     -2287.3838     -1910.4681    
   1841500   288.37229      808.67461     -2338.8433     -1966.6438    
   1842000   285.32759      901.18069     -2307.6167     -1939.347     
   1842500   309.51581      2776.4106     -2311.3065     -1911.8173    
   1843000   284.6964      -170.73181     -2335.9983     -1968.5433    
   1843500   296.1236       2283.1399     -2311.1831     -1928.9791    
   1844000   289.41836      15.957558     -2303.6417     -1930.0921    
   1844500   280.76106      583.77948     -2295.3263     -1932.9506    
   1845000   318.22573      1854.0861     -2321.7254     -1910.9944    
   1845500   288.29356      302.33772     -2334.3681     -1962.2703    
   1846000   310.22358      631.13349     -2335.3683     -1934.9656    
   1846500   309.62827      886.78582     -2321.6769     -1922.0426    
   1847000   290.56366      1817.4638     -2331.1467     -1956.1189    
   1847500   293.75502      1768.5473     -2362.9044     -1983.7575    
   1848000   303.81504      667.65922     -2328.3587     -1936.2275    
   1848500   306.97761      49.499293     -2304.8998     -1908.6867    
   1849000   298.54214      243.96612     -2336.7929     -1951.4673    
   1849500   280.39006      2375.8516     -2309.8064     -1947.9096    
   1850000   306.57599     -486.17163     -2315.9251     -1920.2303    
   1850500   291.79908     -358.0564      -2306.4063     -1929.784     
   1851000   306.32861     -40.395089     -2279.9804     -1884.6049    
   1851500   308.53568      46.38474      -2315.1989     -1916.9748    
   1852000   307.27323      2495.8336     -2332.0266     -1935.4319    
   1852500   305.06501      720.95034     -2304.004      -1910.2594    
   1853000   305.62846      322.69997     -2285.4518     -1890.98      
   1853500   288.2471      -21.089421     -2309.4592     -1937.4213    
   1854000   288.05311      2809.105      -2311.3807     -1939.5932    
   1854500   306.82699      432.97774     -2285.6036     -1889.5848    
   1855000   298.20558      1157.4982     -2305.2162     -1920.325     
   1855500   303.8159       660.1522      -2318.3893     -1926.257     
   1856000   296.53792      1282.9494     -2304.3261     -1921.5873    
   1856500   287.67086      1788.8543     -2283.397      -1912.1029    
   1857000   302.59907      634.3556      -2328.82       -1938.2582    
   1857500   296.86421      563.7672      -2341.0364     -1957.8765    
   1858000   304.90633      880.51752     -2301.9391     -1908.3993    
   1858500   313.0116       1721.211      -2332.7827     -1928.7815    
   1859000   304.95015     -27.241394     -2358.8114     -1965.215     
   1859500   303.11344      140.97311     -2299.3081     -1908.0824    
   1860000   291.43092      1928.8995     -2292.3913     -1916.2441    
   1860500   302.90713      484.12696     -2350.3757     -1959.4162    
   1861000   296.04701      1017.7661     -2294.2337     -1912.1285    
   1861500   317.6556       751.20948     -2327.7135     -1917.7183    
   1862000   298.6873       1150.8519     -2337.9369     -1952.424     
   1862500   299.71498      753.54475     -2337.8968     -1951.0574    
   1863000   291.69612      1649.4127     -2278.9549     -1902.4654    
   1863500   292.15872      965.22734     -2306.5766     -1929.4901    
   1864000   304.68594      49.954868     -2353.1162     -1959.8609    
   1864500   292.7098       1134.3443     -2295.405      -1917.6072    
   1865000   307.13989      2408.3774     -2321.2488     -1924.8262    
   1865500   289.43983     -76.260808     -2307.266      -1933.6887    
   1866000   301.45149      187.02899     -2322.0766     -1932.9959    
   1866500   306.91775      2409.3224     -2303.2211     -1907.0852    
   1867000   282.17942      72.70924      -2294.5725     -1930.3661    
   1867500   279.97909     -309.37431     -2322.0938     -1960.7274    
   1868000   301.99372      1437.6397     -2288.1976     -1898.4171    
   1868500   313.61539      1500.1842     -2334.0053     -1929.2248    
   1869000   280.51406     -1126.4955     -2317.2009     -1955.144     
   1869500   303.89408      923.08843     -2300.6045     -1908.3712    
   1870000   293.85217      281.17329     -2305.7948     -1926.5225    
   1870500   275.07346      1940.8902     -2336.2866     -1981.2519    
   1871000   291.1051       139.53132     -2337.1436     -1961.417     
   1871500   309.84443      1836.9777     -2325.3788     -1925.4654    
   1872000   286.79065      964.79222     -2323.6087     -1953.4506    
   1872500   292.0382       97.101977     -2332.9252     -1955.9942    
   1873000   312.67577      851.59099     -2319.2698     -1915.702     
   1873500   290.589       -64.56961      -2320.5461     -1945.4856    
   1874000   306.31383      2202.1093     -2283.6703     -1888.3139    
   1874500   302.86727      1107.699      -2303.7482     -1912.8402    
   1875000   275.59001      1091.502      -2330.6041     -1974.9027    
   1875500   307.27336      1352.5892     -2342.8243     -1946.2294    
   1876000   305.78242     -447.71102     -2303.817      -1909.1465    
   1876500   277.55341      1375.9985     -2253.6136     -1895.3779    
   1877000   299.54502      1069.4828     -2301.1292     -1914.5092    
   1877500   302.17744      2935.0111     -2323.6916     -1933.6739    
   1878000   304.34155      481.20643     -2327.9516     -1935.1408    
   1878500   309.12181      2520.1948     -2283.4118     -1884.4311    
   1879000   282.20286      1503.5475     -2288.278      -1924.0414    
   1879500   299.44781      1076.042      -2310.2888     -1923.7943    
   1880000   297.28452      2293.6948     -2338.0085     -1954.3061    
   1880500   286.88699      920.43459     -2347.8371     -1977.5548    
   1881000   298.25019     -311.78814     -2313.9528     -1929.004     
   1881500   310.99305      1652.7766     -2310.3608     -1908.9649    
   1882000   294.19921      1086.1754     -2333.7967     -1954.0765    
   1882500   303.76049      1262.9498     -2336.3136     -1944.2527    
   1883000   298.43996      2034.9002     -2315.3157     -1930.122     
   1883500   311.20495      1706.2366     -2324.1036     -1922.4343    
   1884000   305.40767      380.08752     -2331.4045     -1937.2177    
   1884500   294.36217      1965.7587     -2307.2727     -1927.3422    
   1885000   295.86305      2814.2857     -2284.4445     -1902.5768    
   1885500   305.82162      1341.6561     -2314.7521     -1920.031     
   1886000   296.61287      315.53897     -2319.5654     -1936.73      
   1886500   314.10633     -448.17014     -2293.6749     -1888.2607    
   1887000   299.13521      865.30356     -2310.269      -1924.178     
   1887500   299.17014      638.24908     -2324.1488     -1938.0126    
   1888000   287.31053      1515.9227     -2345.9134     -1975.0844    
   1888500   300.51533      1120.8106     -2326.7634     -1938.891     
   1889000   284.08718      1796.328      -2283.3997     -1916.731     
   1889500   307.98826      1799.9702     -2298.1259     -1900.6083    
   1890000   291.65195      310.61462     -2318.9522     -1942.5197    
   1890500   293.31305      2318.503      -2345.793      -1967.2166    
   1891000   282.69742      1866.5608     -2370.9179     -2006.0429    
   1891500   303.72615      973.20502     -2337.3139     -1945.2973    
   1892000   304.69378      1010.6087     -2304.4194     -1911.1539    
   1892500   287.92049     -310.76792     -2303.2674     -1931.6511    
   1893000   284.58115     -181.28225     -2331.149      -1963.8427    
   1893500   286.9999       106.11125     -2279.8967     -1909.4686    
   1894000   308.35038      518.84313     -2332.8961     -1934.9111    
   1894500   295.98048      324.39838     -2334.7062     -1952.687     
   1895000   310.00577      1554.5582     -2296.5943     -1896.4727    
   1895500   295.21338      1110.2167     -2309.4766     -1928.4475    
   1896000   283.54548      619.23641     -2348.5957     -1982.6262    
   1896500   283.42082      1046.0524     -2330.3509     -1964.5422    
   1897000   299.54645      975.91171     -2311.3806     -1924.7587    
   1897500   308.31504     -441.06553     -2320.5704     -1922.631     
   1898000   279.58673      435.47164     -2327.4886     -1966.6286    
   1898500   297.54324      640.62357     -2288.7279     -1904.6915    
   1899000   292.27733      577.5221      -2303.0057     -1925.7661    
   1899500   297.28894      366.59764     -2339.7041     -1955.996     
   1900000   297.00055      2235.3849     -2287.6422     -1904.3063    
   1900500   292.51413      1644.2389     -2298.9051     -1921.3599    
   1901000   269.22524      1407.7701     -2308.8488     -1961.3623    
   1901500   332.10516      1902.5971     -2330.891      -1902.246     
   1902000   302.12033      317.21142     -2325.9433     -1935.9994    
   1902500   310.17976      186.73755     -2294.5575     -1894.2114    
   1903000   308.36874      1279.1247     -2297.5278     -1899.5191    
   1903500   296.35495      1494.9482     -2314.6764     -1932.1738    
   1904000   302.17431      1817.5533     -2323.8843     -1933.8708    
   1904500   303.53688      74.943698     -2352.5733     -1960.801     
   1905000   292.66482      66.448098     -2338.5182     -1960.7785    
   1905500   297.26462      680.76864     -2306.6017     -1922.925     
   1906000   291.34278      475.08132     -2315.1639     -1939.1305    
   1906500   284.55718      601.92357     -2341.9248     -1974.6495    
   1907000   302.22041      1865.4434     -2314.6603     -1924.5872    
   1907500   289.60297      1042.2635     -2297.1364     -1923.3485    
   1908000   311.1609       3.895181      -2290.8169     -1889.2044    
   1908500   288.57898      1063.0837     -2310.8483     -1938.3821    
   1909000   307.50942      935.72049     -2315.8367     -1918.9371    
   1909500   305.84967      1329.8105     -2311.9064     -1917.1491    
   1910000   280.50266      1194.8198     -2294.8523     -1932.8102    
   1910500   315.48146      638.64198     -2305.7149     -1898.5259    
   1911000   285.58647     -866.90425     -2315.7261     -1947.1222    
   1911500   296.14772      775.48012     -2336.9451     -1954.71      
   1912000   317.1991       302.8906      -2316.1101     -1906.7042    
   1912500   308.22275      532.01898     -2315.8729     -1918.0526    
   1913000   282.33546      365.51324     -2332.2693     -1967.8616    
   1913500   310.51352      567.51827     -2341.0787     -1940.3018    
   1914000   297.13101      2423.1824     -2291.7022     -1908.198     
   1914500   307.75959      1352.506      -2296.678      -1899.4555    
   1915000   293.72022      1223.9478     -2325.642      -1946.5401    
   1915500   295.62895      943.36824     -2324.3888     -1942.8232    
   1916000   312.51963      805.16096     -2288.957      -1885.5908    
   1916500   290.81284     -302.88666     -2306.0686     -1930.7192    
   1917000   285.82745      1377.5128     -2298.7753     -1929.8605    
   1917500   316.71877      1956.9799     -2318.065      -1909.279     
   1918000   298.16194      2958.4491     -2306.6661     -1921.8312    
   1918500   309.19268      394.88132     -2320.3827     -1921.3106    
   1919000   268.64741      2403.6052     -2310.2776     -1963.5369    
   1919500   297.303        865.00617     -2323.3994     -1939.6732    
   1920000   312.67842      914.12631     -2313.7241     -1910.153     
   1920500   281.9039       612.98581     -2305.869      -1942.0182    
   1921000   300.93099      1610.7528     -2347.8276     -1959.4187    
   1921500   306.49524      2524.716      -2300.7458     -1905.1552    
   1922000   294.54061      1276.5192     -2327.3311     -1947.1703    
   1922500   307.20621      3438.2279     -2316.4571     -1919.9489    
   1923000   305.88307      1115.3158     -2297.1347     -1902.3343    
   1923500   291.76333      100.19112     -2317.4776     -1940.9014    
   1924000   318.027        1380.8584     -2309.0741     -1898.5996    
   1924500   319.52298     -212.79646     -2313.9031     -1901.4978    
   1925000   294.28619      1673.3012     -2306.7226     -1926.8901    
   1925500   306.29888      1491.1262     -2374.9518     -1979.6146    
   1926000   299.38686      1159.0834     -2310.3094     -1923.8936    
   1926500   312.54241      1392.0236     -2315.6098     -1912.2142    
   1927000   284.69525      1519.3618     -2314.7494     -1947.2958    
   1927500   297.92629      772.95566     -2335.9752     -1951.4445    
   1928000   284.6434       1354.7228     -2288.7459     -1921.3593    
   1928500   301.37833      594.66647     -2316.8574     -1927.8711    
   1929000   296.01461      1666.5757     -2342.1142     -1960.0509    
   1929500   301.17983     -30.688995     -2308.4887     -1919.7586    
   1930000   302.57011      2061.4687     -2290.938      -1900.4135    
   1930500   287.64         2217.5136     -2320.197      -1948.9427    
   1931000   316.21948      1659.377      -2333.412      -1925.2705    
   1931500   298.66636      957.21172     -2324.5075     -1939.0216    
   1932000   302.29805      315.29465     -2339.8207     -1949.6474    
   1932500   302.89575     -90.265416     -2299.1183     -1908.1736    
   1933000   312.30748     -53.188879     -2270.3214     -1867.229     
   1933500   308.9146       1658.6224     -2309.7476     -1911.0344    
   1934000   285.02339      404.3409      -2305.3373     -1937.4603    
   1934500   313.27867     -334.83815     -2300.0038     -1895.658     
   1935000   326.62182      1161.7742     -2313.7128     -1892.145     
   1935500   292.76907      1405.4842     -2314.9127     -1937.0383    
   1936000   314.3997       1355.0404     -2300.9907     -1895.1979    
   1936500   298.41243      200.88131     -2308.1064     -1922.9483    
   1937000   303.86062      804.80453     -2330.5687     -1938.3786    
   1937500   319.75325      737.36925     -2316.989      -1904.2864    
   1938000   293.89949     -213.43946     -2309.6615     -1930.3282    
   1938500   308.96083      1331.4071     -2344.544      -1945.7711    
   1939000   332.17327      1679.4431     -2324.0842     -1895.3513    
   1939500   297.50797      1962.5799     -2314.1679     -1930.1771    
   1940000   300.56599      1283.3082     -2318.948      -1931.0103    
   1940500   312.37622      201.3411      -2293.7807     -1890.5996    
   1941000   299.9582      -369.90165     -2337.4857     -1950.3324    
   1941500   271.23921      262.47333     -2300.6955     -1950.6096    
   1942000   315.43368      1419.6898     -2311.8479     -1904.7206    
   1942500   300.07517     -157.59936     -2336.0357     -1948.7314    
   1943000   287.66467      379.94155     -2323.7664     -1952.4803    
   1943500   300.44418      772.53579     -2296.2511     -1908.4706    
   1944000   302.71404      602.05584     -2297.8675     -1907.1573    
   1944500   294.08255      1307.7027     -2322.2455     -1942.6758    
   1945000   269.52531      355.76991     -2349.9628     -2002.089     
   1945500   291.39664     -271.83627     -2337.9257     -1961.8228    
   1946000   304.49689     -421.29878     -2305.8476     -1912.8363    
   1946500   297.57683      787.71771     -2285.2587     -1901.1791    
   1947000   280.34096      1463.7099     -2317.1196     -1955.2861    
   1947500   298.3206      -157.27334     -2297.2257     -1912.186     
   1948000   296.24735      919.2394      -2301.939      -1919.5753    
   1948500   293.8405       1766.0391     -2323.6844     -1944.4271    
   1949000   285.43551      1456.2463     -2308.5973     -1940.1883    
   1949500   311.87241      1133.1808     -2295.3132     -1892.7824    
   1950000   303.18542      2795.5093     -2312.6325     -1921.3138    
   1950500   298.34152      1285.9494     -2324.2817     -1939.2151    
   1951000   317.58858      1399.3972     -2310.7405     -1900.8318    
   1951500   298.48712      1002.1885     -2324.6175     -1939.3629    
   1952000   290.51583      1640.0528     -2320.668      -1945.7019    
   1952500   297.04628     -322.54765     -2284.7836     -1901.3887    
   1953000   300.65623      1370.7194     -2306.6897     -1918.6355    
   1953500   299.91339     -84.743548     -2325.2551     -1938.1597    
   1954000   317.96623      253.1318      -2330.7252     -1920.3291    
   1954500   296.78799      787.44242     -2304.373      -1921.3115    
   1955000   286.97871     -369.30268     -2341.9616     -1971.5608    
   1955500   296.83639     -78.615887     -2304.0414     -1920.9175    
   1956000   304.13878      1036.0975     -2308.338      -1915.7889    
   1956500   286.9735       1713.6818     -2333.1842     -1962.7902    
   1957000   290.23275     -205.54779     -2311.5983     -1936.9975    
   1957500   317.75317      1466.9677     -2333.3899     -1923.2689    
   1958000   305.12223      853.78517     -2344.3771     -1950.5587    
   1958500   295.14383      1749.5703     -2308.4191     -1927.4797    
   1959000   304.19183      410.47759     -2290.0125     -1897.3949    
   1959500   291.37204     -91.181118     -2333.3555     -1957.2843    
   1960000   295.72634      2430.1536     -2324.2671     -1942.5758    
   1960500   310.72634      893.58003     -2292.8796     -1891.828     
   1961000   315.99591      2043.8664     -2302.7641     -1894.9111    
   1961500   285.31702      477.0031      -2288.7646     -1920.5086    
   1962000   296.56146     -507.00236     -2327.2904     -1944.5213    
   1962500   311.49134      1252.1976     -2367.9102     -1965.8712    
   1963000   318.77381      792.63179     -2316.2583     -1904.8199    
   1963500   294.74427      922.55223     -2316.0671     -1935.6434    
   1964000   304.80144      303.71168     -2335.4904     -1942.086     
   1964500   323.88327      1805.308      -2285.1909     -1867.1577    
   1965000   309.64715      850.43014     -2311.9309     -1912.2722    
   1965500   300.29394      1033.8766     -2322.9532     -1935.3666    
   1966000   291.47231      1756.8462     -2286.9942     -1910.7935    
   1966500   302.9053       325.09453     -2284.1661     -1893.209     
   1967000   287.80348      190.76554     -2307.5166     -1936.0513    
   1967500   290.71589      758.94318     -2295.99       -1920.7657    
   1968000   345.758       -364.80465     -2314.5234     -1868.2568    
   1968500   315.69384      778.98335     -2316.3656     -1908.9024    
   1969000   289.9285      -2097.8246     -2319.7052     -1945.4971    
   1969500   308.09024      822.78519     -2290.9848     -1893.3356    
   1970000   307.00768      1338.8026     -2302.0454     -1905.7935    
   1970500   300.98483      1216.2692     -2323.3443     -1934.8659    
   1971000   298.2676      -241.19588     -2316.3861     -1931.4149    
   1971500   317.70795     -157.81361     -2284.2436     -1874.1809    
   1972000   294.03493      573.47109     -2301.3219     -1921.8138    
   1972500   303.79948      383.8958      -2322.7119     -1930.6007    
   1973000   296.91664      283.85333     -2327.6994     -1944.4718    
   1973500   307.53657      471.62451     -2351.1924     -1954.2578    
   1974000   320.89789      1989.5971     -2323.7204     -1909.5404    
   1974500   310.37869     -748.23175     -2364.542      -1963.9391    
   1975000   314.84532      2156.8279     -2349.3596     -1942.9917    
   1975500   300.38741     -981.46797     -2302.5097     -1914.8024    
   1976000   296.96336     -285.86341     -2327.5076     -1944.2197    
   1976500   310.24901      851.55056     -2346.2538     -1945.8182    
   1977000   301.25729      808.69398     -2278.1369     -1889.3069    
   1977500   327.90388      405.63192     -2320.3832     -1897.1607    
   1978000   301.30899     -353.70203     -2313.7929     -1924.8962    
   1978500   302.8186       833.56399     -2323.0272     -1932.182     
   1979000   301.45109      1322.868      -2295.6456     -1906.5655    
   1979500   306.61133      3057.0221     -2302.8472     -1907.1068    
   1980000   279.1404      -733.43443     -2301.0171     -1940.7332    
   1980500   307.3282      -143.05905     -2298.3556     -1901.69      
   1981000   323.9881       614.82041     -2257.1262     -1838.9578    
   1981500   292.67628     -516.251       -2273.1953     -1895.4407    
   1982000   289.3494       1092.5205     -2301.7508     -1928.2902    
   1982500   291.42325      799.34245     -2322.6805     -1946.5432    
   1983000   306.52205      2724.7433     -2306.8484     -1911.2233    
   1983500   304.89763      536.14781     -2343.1205     -1949.5919    
   1984000   279.90339      1107.5061     -2305.0901     -1943.8214    
   1984500   287.71281      2343.289      -2290.6657     -1919.3174    
   1985000   304.19362      1150.6408     -2338.1229     -1945.503     
   1985500   294.10611      372.13636     -2355.8478     -1976.2478    
   1986000   324.61026      577.32446     -2340.4944     -1921.5229    
   1986500   298.35267      1071.2196     -2306.3455     -1921.2645    
   1987000   291.6493       612.42581     -2340.57       -1964.141     
   1987500   309.58734      254.6593      -2314.9934     -1915.4119    
   1988000   306.13605      386.09203     -2297.5188     -1902.3918    
   1988500   291.65549      616.96809     -2323.2493     -1946.8122    
   1989000   318.65279      748.97283     -2351.5467     -1940.2645    
   1989500   309.85468      594.9495      -2302.6974     -1902.7708    
   1990000   308.21606      1517.7835     -2283.9115     -1886.0999    
   1990500   300.01315      1802.5631     -2335.5818     -1948.3576    
   1991000   291.80761      2169.5677     -2292.2839     -1915.6505    
   1991500   306.1134       257.71179     -2296.6401     -1901.5424    
   1992000   304.21321      535.08475     -2318.1724     -1925.5273    
   1992500   289.39547     -189.37183     -2314.3548     -1940.8348    
   1993000   298.98245      780.56366     -2332.539      -1946.6451    
   1993500   310.70816     -709.57068     -2323.6714     -1922.6432    
   1994000   308.87378      634.09053     -2300.2472     -1901.5867    
   1994500   291.04271      2220.0437     -2329.195      -1953.5489    
   1995000   302.98407      1054.1848     -2322.0214     -1930.9627    
   1995500   314.10225      1465.1269     -2290.1436     -1884.7348    
   1996000   319.50021      1241.9907     -2309.8307     -1897.4548    
   1996500   307.77173      696.07371     -2347.8667     -1950.6286    
   1997000   296.78216      1954.7593     -2328.0356     -1944.9816    
   1997500   312.81575      761.66351     -2311.0761     -1907.3277    
   1998000   287.89614      2163.7347     -2304.0335     -1932.4486    
   1998500   283.79765     -69.51374      -2346.1013     -1979.8063    
   1999000   290.75259      438.4234      -2302.6445     -1927.3728    
   1999500   291.87727      835.64444     -2304.3714     -1927.6482    
   2000000   291.61902      1355.628      -2344.0954     -1967.7054    
   2000500   277.2621       2390.3958     -2334.7332     -1976.8735    
   2001000   297.90343      1163.6264     -2311.5318     -1927.0306    
   2001500   298.49038      2452.9955     -2310.3738     -1925.115     
   2002000   294.09125      2395.3599     -2345.7317     -1966.1509    
   2002500   301.92992      37.662022     -2306.0524     -1916.3543    
   2003000   289.44805      2599.3781     -2283.1619     -1909.574     
   2003500   279.48295     -374.10574     -2308.1731     -1947.447     
   2004000   291.24087      1709.7365     -2288.5859     -1912.684     
   2004500   330.86577      585.1537      -2286.7723     -1859.7269    
   2005000   314.31771      70.471497     -2325.572      -1919.8851    
   2005500   274.94328      520.38619     -2311.6877     -1956.821     
   2006000   296.98859     -894.53297     -2307.0241     -1923.7037    
   2006500   312.40564      922.00136     -2301.3581     -1898.1391    
   2007000   290.67451      1494.9316     -2322.7724     -1947.6015    
   2007500   282.19402     -288.82719     -2305.247      -1941.0218    
   2008000   308.49988      1842.6679     -2299.0998     -1900.9219    
   2008500   286.81568      1355.4283     -2311.5952     -1941.4048    
   2009000   295.58063      629.8262      -2331.7177     -1950.2145    
   2009500   308.28159      1538.2225     -2296.2586     -1898.3624    
   2010000   297.0387       510.37265     -2321.6578     -1938.2727    
   2010500   309.92921      1482.071      -2325.7621     -1925.7394    
   2011000   320.4018       1935.48       -2298.1017     -1884.5621    
   2011500   294.88178     -166.97606     -2315.297      -1934.6958    
   2012000   299.59978      363.08499     -2324.5645     -1937.8739    
   2012500   324.39241     -150.70345     -2287.3354     -1868.6451    
   2013000   302.13709      1814.4909     -2290.7936     -1900.8281    
   2013500   291.08138     -666.62857     -2311.2237     -1935.5277    
   2014000   314.98297      1271.4821     -2342.9319     -1936.3863    
   2014500   311.28146      893.43638     -2290.6403     -1888.8722    
   2015000   305.46878     -86.124826     -2333.9594     -1939.6937    
   2015500   310.60823     -761.18544     -2322.6155     -1921.7164    
   2016000   307.89918      2231.5399     -2287.4589     -1890.0563    
   2016500   303.26652      1799.4823     -2255.1984     -1863.7751    
   2017000   311.90276      1041.0765     -2323.4522     -1920.8822    
   2017500   301.48619     -245.83463     -2348.426      -1959.3006    
   2018000   310.44285      1365.6483     -2316.0046     -1915.3189    
   2018500   298.82829      1267.1824     -2312.0842     -1926.3893    
   2019000   298.29625      263.44341     -2333.5115     -1948.5033    
   2019500   299.43623      1556.6263     -2295.9701     -1909.4905    
   2020000   303.69987      1365.247      -2313.7168     -1921.7341    
   2020500   310.01793      1070.2515     -2345.311      -1945.1737    
   2021000   310.06655     -362.4124      -2311.0068     -1910.8068    
   2021500   329.60966      709.04611     -2272.3        -1846.8759    
   2022000   301.5735       1487.6383     -2282.0143     -1892.7762    
   2022500   292.6789       775.16625     -2319.924      -1942.1661    
   2023000   287.38944      1531.7118     -2290.4546     -1919.5237    
   2023500   301.84265      1595.6038     -2288.3708     -1898.7853    
   2024000   284.61381      649.72803     -2302.3103     -1934.9619    
   2024500   313.71628      834.36223     -2337.4656     -1932.5549    
   2025000   296.90811      593.24188     -2316.0555     -1932.8389    
   2025500   293.81898      1248.7066     -2308.9119     -1929.6825    
   2026000   287.54864      563.98987     -2357.1476     -1986.0112    
   2026500   299.40509      1430.6224     -2323.4872     -1937.0478    
   2027000   297.71267      1144.6255     -2318.7509     -1934.4959    
   2027500   303.64127     -297.90588     -2308.4629     -1916.556     
   2028000   320.84613      80.693979     -2306.6639     -1892.5508    
   2028500   273.30316      2296.48       -2301.514      -1948.7641    
   2029000   304.25456      632.761       -2321.1204     -1928.4218    
   2029500   315.52204      3237.1599     -2274.9792     -1867.7379    
   2030000   296.72703      1788.5851     -2297.1831     -1914.2003    
   2030500   299.50452      545.44141     -2330.1367     -1943.569     
   2031000   270.2563      -303.8351      -2308.8415     -1960.0242    
   2031500   288.83745      1856.339      -2276.8824     -1904.0826    
   2032000   314.49575      1372.666      -2319.8926     -1913.9759    
   2032500   282.89812      991.40649     -2325.9201     -1960.7861    
   2033000   299.4455       452.74638     -2312.945      -1926.4534    
   2033500   296.79757      550.59896     -2292.4734     -1909.3996    
   2034000   285.91912      833.40652     -2335.392      -1966.3588    
   2034500   294.84449     -4.0200044     -2317.7918     -1937.2387    
   2035000   307.13235     -875.15228     -2322.7547     -1926.3419    
   2035500   284.99187      9.0807919     -2330.2816     -1962.4452    
   2036000   281.09315      597.371       -2336.8306     -1974.0262    
   2036500   299.22666      57.324196     -2311.3591     -1925.1501    
   2037000   297.41949      998.61294     -2304.2766     -1920.4       
   2037500   295.64831      1552.3954     -2295.1279     -1913.5373    
   2038000   291.36203      300.97398     -2293.9497     -1917.8914    
   2038500   273.21566      2561.251      -2313.8622     -1961.2253    
   2039000   295.96168      2065.1988     -2289.8189     -1907.8239    
   2039500   296.42665      678.97695     -2292.5319     -1909.9368    
   2040000   303.83223      1661.5149     -2331.848      -1939.6945    
   2040500   282.3708       603.5881      -2334.8055     -1970.3521    
   2041000   317.27557      663.17003     -2326.1963     -1916.6916    
   2041500   287.77333      365.81092     -2323.1002     -1951.6738    
   2042000   302.02167      599.06367     -2291.573      -1901.7564    
   2042500   306.68925      524.86244     -2312.8797     -1917.0387    
   2043000   290.66336      66.472394     -2314.2868     -1939.1303    
   2043500   293.18823      765.04692     -2349.6981     -1971.2828    
   2044000   311.87638      1099.508      -2321.3239     -1918.7879    
   2044500   306.26227      506.98189     -2328.4108     -1933.1209    
   2045000   284.61219      1074.3074     -2349.7172     -1982.3709    
   2045500   295.98767      1604.8272     -2397.819      -2015.7904    
   2046000   283.85052      1112.7687     -2320.9915     -1954.6282    
   2046500   297.89177      2108.1286     -2296.2395     -1911.7533    
   2047000   315.93173      430.52006     -2328.1197     -1920.3495    
   2047500   288.07194      327.49647     -2334.7569     -1962.9451    
   2048000   317.34556      1884.8865     -2322.3255     -1912.7305    
   2048500   308.75585      2101.9073     -2299.8155     -1901.3072    
   2049000   304.98101      1371.4224     -2350.8183     -1957.1821    
   2049500   306.16523      1308.3117     -2328.4027     -1933.2381    
   2050000   317.06337     -481.45883     -2310.7157     -1901.485     
   2050500   275.39619      1171.7554     -2296.7278     -1941.2764    
   2051000   293.61443     -908.51404     -2331.1362     -1952.1707    
   2051500   302.11134      895.6406      -2312.3817     -1922.4493    
   2052000   323.28757      2029.404      -2292.9384     -1875.6741    
   2052500   294.94702      1899.307      -2297.8767     -1917.1914    
   2053000   288.3697       906.07382     -2310.4368     -1938.2407    
   2053500   303.48252     -134.0198      -2323.1907     -1931.4886    
   2054000   310.96394      3579.9657     -2293.172      -1891.8137    
   2054500   300.44343     -394.99156     -2335.7741     -1947.9945    
   2055000   283.11734      438.83423     -2324.7756     -1959.3586    
   2055500   313.98204      756.80076     -2310.7005     -1905.4467    
   2056000   301.73072      1971.3338     -2323.4214     -1933.9803    
   2056500   307.97168      159.16398     -2336.2122     -1938.716     
   2057000   320.59589      1385.1703     -2297.1744     -1883.3843    
   2057500   301.43602      1933.3755     -2305.4095     -1916.3489    
   2058000   300.63584      1046.2595     -2338.9795     -1950.9516    
   2058500   309.94832      1706.3419     -2330.1397     -1930.0923    
   2059000   320.90254      2227.4297     -2293.3762     -1879.1902    
   2059500   309.74782      1812.0415     -2326.9587     -1927.1701    
   2060000   291.64478      1855.4479     -2305.631      -1929.2078    
   2060500   320.02066      2555.123      -2293.5999     -1880.5521    
   2061000   295.53756      814.67906     -2319.7032     -1938.2556    
   2061500   281.13522      850.92383     -2305.2566     -1942.398     
   2062000   305.53337      1771.8342     -2296.5198     -1902.1707    
   2062500   311.09881      1325.5993     -2331.2821     -1929.7498    
   2063000   298.97484      568.49631     -2319.1826     -1933.2986    
   2063500   301.87268      593.59038     -2305.9493     -1916.3251    
   2064000   286.54283      216.86028     -2341.2195     -1971.3813    
   2064500   311.03444      405.9953      -2339.272      -1937.8227    
   2065000   310.94547      2123.247      -2326.0019     -1924.6675    
   2065500   291.02002      1249.7769     -2322.488      -1946.8711    
   2066000   309.30607      2066.0419     -2335.3534     -1936.1349    
   2066500   314.31833      905.2776      -2310.1064     -1904.4186    
   2067000   282.32548      2108.446      -2324.2745     -1959.8796    
   2067500   311.50152      302.45754     -2346.5122     -1944.46      
   2068000   312.80977      786.5524      -2291.3109     -1887.5702    
   2068500   324.49737      493.51684     -2319.1043     -1900.2785    
   2069000   297.49101      280.31956     -2323.7485     -1939.7796    
   2069500   294.67356      2152.8037     -2308.2672     -1927.9348    
   2070000   311.4478       2598.1161     -2290.9622     -1888.9794    
   2070500   304.89557      377.1619      -2324.8631     -1931.3372    
   2071000   317.79947      2446.2029     -2344.2448     -1934.0639    
   2071500   313.34093      1627.3104     -2296.8994     -1892.4732    
   2072000   309.49652     -36.211473     -2348.1592     -1948.6949    
   2072500   285.7105      -593.80935     -2322.2795     -1953.5156    
   2073000   306.02712     -72.803954     -2297.1051     -1902.1187    
   2073500   300.26231      625.28767     -2302.5845     -1915.0387    
   2074000   289.80027      632.37376     -2323.5013     -1949.4588    
   2074500   289.34652      1607.9635     -2337.7413     -1964.2845    
   2075000   304.45779      2367.5533     -2322.2431     -1929.2823    
   2075500   279.1985       882.25391     -2306.6514     -1946.2925    
   2076000   309.03738     -5.2067612     -2368.3009     -1969.4292    
   2076500   301.62764      184.71301     -2302.9341     -1913.6261    
   2077000   307.87941      670.21895     -2330.9137     -1933.5366    
   2077500   283.42071      411.66293     -2341.3208     -1975.5124    
   2078000   314.42709      927.53429     -2319.1727     -1913.3445    
   2078500   311.12155      32.875928     -2301.9499     -1900.3882    
   2079000   291.75772      820.87156     -2327.1843     -1950.6153    
   2079500   302.07335      543.87865     -2349.709      -1959.8257    
   2080000   298.28623      373.85964     -2283.0269     -1898.0316    
   2080500   300.18542      2013.3885     -2304.9863     -1917.5398    
   2081000   275.82946      356.57383     -2312.4264     -1956.4159    
   2081500   309.52257      2735.709      -2295.6532     -1896.1552    
   2082000   311.04051     -399.43941     -2315.7359     -1914.2788    
   2082500   302.38864     -478.19927     -2339.4442     -1949.154     
   2083000   295.76764      86.641247     -2315.1875     -1933.443     
   2083500   306.91155      2412.3456     -2318.2584     -1922.1305    
   2084000   303.41185      882.0297      -2329.7472     -1938.1363    
   2084500   297.62329      777.11899     -2351.1033     -1966.9637    
   2085000   301.21814      652.37494     -2304.0473     -1915.2678    
   2085500   308.48196     -16.862384     -2314.4789     -1916.3241    
   2086000   287.54785      674.9026      -2343.45       -1972.3146    
   2086500   299.697        1568.0016     -2338.7779     -1951.9617    
   2087000   305.78546      353.14989     -2329.8732     -1935.1988    
   2087500   306.96075      765.52024     -2310.6164     -1914.425     
   2088000   312.01267      2000.6232     -2279.6968     -1876.985     
   2088500   278.91006     -1448.2005     -2300.6389     -1940.6523    
   2089000   298.98209      756.92617     -2311.8534     -1925.96      
   2089500   303.89808      2535.0453     -2284.8586     -1892.6202    
   2090000   289.90696      1217.5902     -2281.6446     -1907.4644    
   2090500   299.87638      1047.1361     -2327.8373     -1940.7897    
   2091000   296.37768      418.92269     -2320.9455     -1938.4136    
   2091500   305.23445      2713.6951     -2288.243      -1894.2797    
   2092000   298.02162     -355.54059     -2328.208      -1943.5543    
   2092500   290.83652      973.23396     -2313.9556     -1938.5756    
   2093000   320.74305      2804.2429     -2329.0333     -1915.0532    
   2093500   308.9007       1147.0662     -2318.2188     -1919.5235    
   2094000   296.42181      658.87732     -2296.5108     -1913.9219    
   2094500   331.14067     -289.53918     -2299.7603     -1872.3601    
   2095000   291.22099      1013.5585     -2310.9659     -1935.0896    
   2095500   294.49486      2265.8976     -2295.7774     -1915.6756    
   2096000   308.64493      1976.825      -2276.1341     -1877.769     
   2096500   311.96475      424.34507     -2316.1712     -1913.5212    
   2097000   287.10052      2385.3336     -2313.905      -1943.347     
   2097500   306.67822      1638.1704     -2317.6641     -1921.8374    
   2098000   313.04734      1121.6065     -2307.8078     -1903.7605    
   2098500   297.21669      597.2854      -2327.0998     -1943.485     
   2099000   327.2482       2098.7376     -2327.605      -1905.2288    
   2099500   295.03927      2148.5716     -2286.6475     -1905.843     
   2100000   299.24106      2082.4604     -2347.4731     -1961.2454    
   2100500   303.61694      765.8772      -2310.1998     -1918.3242    
   2101000   303.82016      1595.7387     -2307.0094     -1914.8715    
   2101500   289.54909      2175.8159     -2304.1756     -1930.4572    
   2102000   291.60314      778.35696     -2314.0478     -1937.6783    
   2102500   272.82908      977.90506     -2315.3262     -1963.1882    
   2103000   325.9756       1935.4071     -2334.3736     -1913.6399    
   2103500   294.84405      649.57256     -2308.6097     -1928.0572    
   2104000   296.7571       1471.679      -2297.2795     -1914.2579    
   2104500   315.32745      180.09751     -2304.5606     -1897.5704    
   2105000   290.99832      614.13284     -2325.3456     -1949.7567    
   2105500   296.80567      2009.8875     -2330.7222     -1947.6379    
   2106000   287.76583      1116.3921     -2264.9637     -1893.547     
   2106500   328.58148     -1318.8651     -2316.8121     -1892.7151    
   2107000   292.6414       479.86227     -2315.8029     -1938.0934    
   2107500   303.56999      1058.6855     -2307.0587     -1915.2437    
   2108000   303.74548      1867.3341     -2307.3995     -1915.358     
   2108500   302.27672     -80.04505      -2354.8076     -1964.6618    
   2109000   303.68312      1279.2128     -2312.1142     -1920.1532    
   2109500   318.0454       418.44318     -2323.7895     -1913.2912    
   2110000   312.70161      741.13966     -2334.2081     -1930.607     
   2110500   307.86392      280.90115     -2364.9555     -1967.5983    
   2111000   285.59916      974.74055     -2342.5346     -1973.9144    
   2111500   301.55697      495.60358     -2325.7469     -1936.5301    
   2112000   298.48611     -251.4073      -2285.4566     -1900.2033    
   2112500   337.74989      2271.2923     -2281.4956     -1845.5649    
   2113000   299.75562      634.92877     -2309.6417     -1922.7499    
   2113500   279.08203      781.05006     -2302.1728     -1941.9642    
   2114000   304.05402      3119.9333     -2288.8002     -1896.3605    
   2114500   307.1127       1376.179      -2277.1221     -1880.7346    
   2115000   283.88314     -209.03038     -2313.5536     -1947.1483    
   2115500   299.78605      1001.5426     -2334.8768     -1947.9457    
   2116000   309.28311      3027.6262     -2297.6508     -1898.4619    
   2116500   305.81767      692.94121     -2327.8612     -1933.1452    
   2117000   301.42702      1321.3156     -2341.0708     -1952.0218    
   2117500   311.95569      174.46132     -2318.6131     -1915.9748    
   2118000   286.34348      2246.2435     -2264.8903     -1895.3094    
   2118500   311.75887      1788.1007     -2294.7009     -1892.3166    
   2119000   302.74765      1053.9053     -2342.9806     -1952.227     
   2119500   302.9739       858.78257     -2334.6927     -1943.6471    
   2120000   300.05759      2191.563      -2291.1285     -1903.8469    
   2120500   301.12392     -831.72943     -2320.2777     -1931.6198    
   2121000   301.99921      991.11492     -2276.316      -1886.5284    
   2121500   293.07133      1003.0653     -2271.2002     -1892.9358    
   2122000   311.23742      1602.1575     -2331.5923     -1929.881     
   2122500   304.73775      598.46706     -2313.8882     -1920.566     
   2123000   334.21692      2005.8617     -2310.5575     -1879.1869    
   2123500   296.9782       1061.5912     -2320.491      -1937.184     
   2124000   287.00557      1433.273      -2313.6628     -1943.2273    
   2124500   305.97512      1468.0929     -2284.9911     -1890.0718    
   2125000   298.44206      1712.966      -2308.9405     -1923.7441    
   2125500   297.98574      1165.78       -2321.1101     -1936.5027    
   2126000   310.67726     -85.33333      -2332.9342     -1931.9459    
   2126500   302.76156      55.060116     -2375.8187     -1985.0471    
   2127000   287.18137      997.72644     -2313.3211     -1942.6588    
   2127500   293.73492      2047.724      -2305.5402     -1926.4193    
   2128000   288.14431      611.30457     -2298.4356     -1926.5304    
   2128500   317.92328      954.20056     -2299.8244     -1889.4837    
   2129000   307.95064      823.06748     -2332.7648     -1935.2958    
   2129500   274.02693      1226.3357     -2303.3066     -1949.6226    
   2130000   292.97895      916.00716     -2282.7441     -1904.5989    
   2130500   315.00486      89.001511     -2316.7748     -1910.2009    
   2131000   299.58375      397.44373     -2322.5025     -1935.8326    
   2131500   291.62991      1484.7635     -2298.5656     -1922.1616    
   2132000   304.9066       3066.6736     -2268.8803     -1875.3401    
   2132500   325.94335      360.69466     -2343.5778     -1922.8857    
   2133000   293.03963      726.88506     -2313.4952     -1935.2716    
   2133500   318.02285      903.38913     -2308.5857     -1898.1165    
   2134000   305.89786      254.47224     -2295.772      -1900.9524    
   2134500   294.96434     -1102.0474     -2332.4356     -1951.7278    
   2135000   310.60152      495.98952     -2319.1096     -1918.2191    
   2135500   278.33793      1118.0129     -2316.7595     -1957.5113    
   2136000   297.50461      339.3507      -2333.3116     -1949.3251    
   2136500   303.30265      1087.1064     -2308.6208     -1917.1509    
   2137000   293.73176      2326.8138     -2334.3832     -1955.2663    
   2137500   263.86693      2690.719      -2353.6023     -2013.0317    
   2138000   300.64885     -1255.9535     -2348.5009     -1960.4563    
   2138500   299.05659      2010.2489     -2311.7321     -1925.7426    
   2139000   272.87137      521.67466     -2314.1517     -1961.9591    
   2139500   288.34265      1321.7375     -2325.624      -1953.4628    
   2140000   297.44801      2030.057      -2311.4285     -1927.5151    
   2140500   323.03402      535.77664     -2343.3751     -1926.4381    
   2141000   284.93446      1020.4937     -2335.8474     -1968.0851    
   2141500   309.11215      1260.2587     -2315.6262     -1916.658     
   2142000   292.16467      1441.7234     -2303.3123     -1926.218     
   2142500   279.86261     -379.37653     -2329.2969     -1968.0808    
   2143000   296.71833      222.12332     -2338.1748     -1955.2031    
   2143500   310.35203      394.75992     -2310.4956     -1909.9271    
   2144000   320.877        676.78564     -2308.7197     -1894.5667    
   2144500   287.01179      895.28118     -2322.3973     -1951.9539    
   2145000   297.94476      151.96186     -2299.7395     -1915.185     
   2145500   295.64385      1163.8809     -2318.5309     -1936.9461    
   2146000   269.77461      431.75965     -2311.0054     -1962.8098    
   2146500   297.34784      117.18909     -2298.4486     -1914.6645    
   2147000   308.06221      2280.1744     -2325.2875     -1927.6744    
   2147500   320.00418      508.70022     -2348.7955     -1935.769     
   2148000   323.96062      504.35342     -2297.0554     -1878.9224    
   2148500   308.95489     -177.55086     -2318.8248     -1920.0595    
   2149000   285.59206      792.45643     -2298.3364     -1929.7254    
   2149500   309.57734      20.54838      -2300.668      -1901.0994    
   2150000   313.641        932.19262     -2293.4826     -1888.6691    
   2150500   303.03907      531.21004     -2328.2129     -1937.0832    
   2151000   288.59937      1427.5761     -2331.9196     -1959.4271    
   2151500   306.53302      1098.647      -2315.5592     -1919.9198    
   2152000   303.23935      411.56936     -2292.3191     -1900.9309    
   2152500   301.5657       447.79108     -2345.5589     -1956.3309    
   2153000   315.15532      2275.6014     -2336.6874     -1929.9193    
   2153500   303.81195      1548.4911     -2302.7698     -1910.6426    
   2154000   294.31928      803.33623     -2299.1707     -1919.2955    
   2154500   290.30117      1390.4842     -2283.8771     -1909.1881    
   2155000   315.54462      1139.9324     -2289.049      -1881.7785    
   2155500   291.42333      799.79679     -2314.1737     -1938.0363    
   2156000   303.1246       8.8448006     -2323.8907     -1932.6506    
   2156500   311.39074      1166.7078     -2300.2493     -1898.3402    
   2157000   297.9242       1314.0564     -2323.1155     -1938.5874    
   2157500   289.58367      1914.0038     -2321.697      -1947.9341    
   2158000   314.3648       628.67614     -2308.1053     -1902.3575    
   2158500   332.90216      2348.251      -2277.1568     -1847.4831    
   2159000   310.56233      2197.6284     -2310.0638     -1909.2239    
   2159500   300.06298      301.70742     -2313.1549     -1925.8664    
   2160000   286.80978      2725.8282     -2267.2207     -1897.038     
   2160500   283.3406       1804.5556     -2295.1125     -1929.4074    
   2161000   295.89982      1069.4007     -2312.1673     -1930.2521    
   2161500   326.9192       940.47344     -2297.5697     -1875.6181    
   2162000   297.38273      1396.0945     -2305.5625     -1921.7334    
   2162500   282.40359      493.69277     -2288.4978     -1924.0021    
   2163000   298.79394      107.21733     -2300.1368     -1914.4862    
   2163500   309.77956      658.54699     -2309.6751     -1909.8455    
   2164000   270.73409      1321.9869     -2294.7538     -1945.3198    
   2164500   308.76855      118.60168     -2354.4343     -1955.9096    
   2165000   295.76473      682.85904     -2292.3861     -1910.6453    
   2165500   308.41004      327.67741     -2324.0354     -1925.9734    
   2166000   282.99831      769.43971     -2327.4291     -1962.1658    
   2166500   297.58486      335.40037     -2290.6956     -1906.6056    
   2167000   291.83521      493.97117     -2316.1803     -1939.5113    
   2167500   304.32547      2419.2561     -2311.227      -1918.4369    
   2168000   306.12066      2104.6131     -2294.5418     -1899.4347    
   2168500   286.87888      1228.8343     -2307.6057     -1937.3338    
   2169000   300.99679     -245.05431     -2307.6073     -1919.1135    
   2169500   310.19453      935.20098     -2283.8678     -1883.5026    
   2170000   309.45733      563.39002     -2332.8341     -1933.4204    
   2170500   302.86908      980.47326     -2315.2231     -1924.3128    
   2171000   323.8774       1021.8923     -2312.7587     -1894.7331    
   2171500   278.15766      548.10153     -2308.2695     -1949.254     
   2172000   304.14798      2079.2757     -2316.4294     -1923.8684    
   2172500   296.31325      1571.5693     -2290.1758     -1907.727     
   2173000   295.79952      1262.6678     -2303.8253     -1922.0396    
   2173500   300.26223      1683.3987     -2372.4209     -1984.8752    
   2174000   296.34836     -407.15384     -2319.8817     -1937.3876    
   2174500   314.73167      1246.8634     -2309.7478     -1903.5265    
   2175000   289.74389      1008.8971     -2324.1535     -1950.1837    
   2175500   308.39513      1261.2018     -2347.8445     -1949.8018    
   2176000   314.06363      246.95463     -2306.5387     -1901.1796    
   2176500   309.02158      1615.9638     -2302.5702     -1903.7189    
   2177000   306.15549      525.84156     -2343.9212     -1948.7691    
   2177500   303.22326      1001.3405     -2334.2775     -1942.91      
   2178000   300.41368      1197.0227     -2316.6379     -1928.8967    
   2178500   309.00511      566.53507     -2309.5993     -1910.7693    
   2179000   302.12293      1958.0269     -2321.72       -1931.7727    
   2179500   309.33575      589.477       -2359.2438     -1959.987     
   2180000   300.18722      1161.9338     -2288.7855     -1901.3366    
   2180500   315.68464      390.62337     -2318.4294     -1910.9782    
   2181000   288.4696       1730.2191     -2337.8366     -1965.5115    
   2181500   296.70504      1406.9195     -2311.8109     -1928.8564    
   2182000   308.40986     -439.55438     -2317.6348     -1919.573     
   2182500   315.6882       1616.7848     -2312.5081     -1905.0523    
   2183000   305.59016      1040.0217     -2332.793      -1938.3706    
   2183500   297.19512      1221.4732     -2332.112      -1948.525     
   2184000   312.85777      1172.0266     -2302.0779     -1898.2753    
   2184500   291.35333      1342.7908     -2305.5334     -1929.4864    
   2185000   287.17069      808.51703     -2291.5413     -1920.8927    
   2185500   312.4301       2230.7569     -2288.0379     -1884.7873    
   2186000   299.67229      1012.6187     -2336.3808     -1949.5965    
   2186500   296.16915      885.34514     -2300.8095     -1918.5467    
   2187000   319.27537     -98.083854     -2301.5062     -1889.4204    
   2187500   286.40776     -748.66087     -2320.5645     -1950.9007    
   2188000   309.60356     -827.57895     -2342.4331     -1942.8306    
   2188500   313.58167      1630.4613     -2303.4228     -1898.6858    
   2189000   300.55703      70.230249     -2337.8164     -1949.8902    
   2189500   305.00108      900.32052     -2331.8936     -1938.2316    
   2190000   301.53557      985.40338     -2303.0943     -1913.9051    
   2190500   288.17494      63.322902     -2306.0714     -1934.1266    
   2191000   290.19146      342.17687     -2331.2803     -1956.7329    
   2191500   310.54037      919.98506     -2309.5545     -1908.7429    
   2192000   281.65759      1171.1369     -2296.4607     -1932.9279    
   2192500   294.65248      828.09288     -2342.094      -1961.7887    
   2193000   310.84815      1386.7034     -2310.4826     -1909.2737    
   2193500   291.94511      49.746635     -2306.0529     -1929.242     
   2194000   317.84939     -512.68287     -2357.691      -1947.4458    
   2194500   305.64229     -261.25054     -2329.6467     -1935.157     
   2195000   299.35326      718.40204     -2294.5054     -1908.1329    
   2195500   322.53047      1792.7396     -2301.7649     -1885.4778    
   2196000   300.22665      32.628565     -2323.3298     -1935.8301    
   2196500   304.07076      1761.3341     -2316.7855     -1924.3242    
   2197000   304.66138      3027.4366     -2275.9321     -1882.7085    
   2197500   273.28888      1008.2935     -2304.9407     -1952.2093    
   2198000   298.55856      1244.5235     -2321.9268     -1936.58      
   2198500   319.74308      2271.1418     -2312.3733     -1899.6839    
   2199000   289.94865      1636.4178     -2316.4033     -1942.1693    
   2199500   287.88923      673.52685     -2348.8327     -1977.2568    
   2200000   296.68699      2040.9592     -2326.8736     -1943.9424    
   2200500   299.23279      1513.3033     -2303.9778     -1917.7608    
   2201000   284.61388      1102.2995     -2334.9575     -1967.609     
   2201500   296.13411      2449.8956     -2319.5279     -1937.3103    
   2202000   304.3084       558.0686      -2317.9935     -1925.2255    
   2202500   280.17397      746.36877     -2318.0333     -1956.4153    
   2203000   278.7819       580.07699     -2335.7488     -1975.9276    
   2203500   304.88651      2724.0905     -2321.2932     -1927.779     
   2204000   297.7607       175.16162     -2305.9999     -1921.6829    
   2204500   286.15847      49.624494     -2341.8629     -1972.5208    
   2205000   286.24864      1189.6121     -2311.4535     -1941.995     
   2205500   306.30138      796.40443     -2313.8299     -1918.4896    
   2206000   307.14591      1767.3136     -2312.9916     -1916.5612    
   2206500   302.2303      -997.65929     -2346.009      -1955.9232    
   2207000   311.18993      718.29756     -2337.5616     -1935.9117    
   2207500   294.77121      190.43554     -2274.6662     -1894.2077    
   2208000   283.54672      3.0757319     -2306.1473     -1940.1761    
   2208500   298.68345     -641.16836     -2316.4773     -1930.9694    
   2209000   326.5332       868.81141     -2309.7808     -1888.3274    
   2209500   301.00979      1962.8373     -2301.9543     -1913.4437    
   2210000   291.73822      863.90275     -2311.8507     -1935.3069    
   2210500   294.86576      342.52395     -2273.4372     -1892.8567    
   2211000   304.45729      1119.6146     -2339.064      -1946.1038    
   2211500   298.05645     -213.25177     -2331.3366     -1946.6379    
   2212000   297.02247      2129.8001     -2279.3532     -1895.989     
   2212500   310.94131      1397.6957     -2298.6841     -1897.355     
   2213000   310.98978      300.2333      -2337.0112     -1935.6196    
   2213500   298.65239      1546.6483     -2328.0108     -1942.5429    
   2214000   317.92146      626.44774     -2306.2825     -1895.9442    
   2214500   297.52264      471.7707      -2319.334      -1935.3243    
   2215000   294.42769      1747.5866     -2334.9389     -1954.9238    
   2215500   309.06646     -53.728436     -2331.3644     -1932.4552    
   2216000   300.5156       402.22639     -2328.3999     -1940.5272    
   2216500   287.4328      -382.49428     -2360.5986     -1989.6118    
   2217000   296.06442      687.78164     -2308.4809     -1926.3533    
   2217500   299.05682      1158.9626     -2303.1249     -1917.135     
   2218000   281.29017      366.25231     -2326.013      -1962.9544    
   2218500   302.14624      66.729414     -2329.0467     -1939.0694    
   2219000   286.0289       1540.2101     -2266.0118     -1896.837     
   2219500   285.39056     -409.07937     -2314.8168     -1946.4659    
   2220000   294.84032      2671.1853     -2318.6015     -1938.0538    
   2220500   301.24441     -236.94667     -2306.3064     -1917.493     
   2221000   312.01114      1682.6889     -2284.9883     -1882.2785    
   2221500   299.47909      589.9832      -2317.0988     -1930.5639    
   2222000   274.91503      768.26497     -2292.8326     -1938.0023    
   2222500   298.41371      1369.0376     -2267.0431     -1881.8833    
   2223000   297.91198     -366.11681     -2314.5769     -1930.0647    
   2223500   307.34243      207.30814     -2333.2228     -1936.5387    
   2224000   296.64466     -409.19817     -2313.6175     -1930.7409    
   2224500   305.12635      1935.8783     -2287.8381     -1894.0143    
   2225000   318.48657      806.36369     -2345.757      -1934.6894    
   2225500   275.33056      1283.4424     -2305.321      -1949.9544    
   2226000   305.17324      1185.1991     -2312.1126     -1918.2283    
   2226500   304.19107     -54.487775     -2309.9482     -1917.3316    
   2227000   288.51799      2073.8673     -2350.8946     -1978.5071    
   2227500   299.54609      1378.3189     -2338.6442     -1952.0229    
   2228000   321.5931       644.74237     -2338.4862     -1923.4089    
   2228500   315.68624      243.58437     -2349.8779     -1942.4245    
   2229000   287.03345     -539.52077     -2369.0538     -1998.5823    
   2229500   294.04698      664.04501     -2338.3614     -1958.8377    
   2230000   320.94004      1806.0533     -2336.4837     -1922.2494    
   2230500   312.66745      510.54155     -2315.3353     -1911.7783    
   2231000   305.13273      1223.2981     -2331.1564     -1937.3244    
   2231500   280.17509      589.90711     -2342.1774     -1980.558     
   2232000   300.74634      185.46706     -2323.1287     -1934.9581    
   2232500   319.83844      1587.2814     -2337.9601     -1925.1476    
   2233000   307.51495     -113.10287     -2339.8966     -1942.9899    
   2233500   275.16662      1195.7077     -2303.1836     -1948.0286    
   2234000   274.05082     -307.77546     -2326.7157     -1973.0009    
   2234500   309.79841      1042.6994     -2318.8044     -1918.9505    
   2235000   294.95091      2034.7171     -2296.4129     -1915.7225    
   2235500   299.99482      552.79781     -2352.839      -1965.6384    
   2236000   308.23855      341.31508     -2328.0465     -1930.2059    
   2236500   293.11583     -53.078999     -2307.9181     -1929.5963    
   2237000   299.14009      3213.8299     -2316.1479     -1930.0505    
   2237500   297.77196      648.54357     -2348.2611     -1963.9296    
   2238000   300.11189      1316.9732     -2300.8362     -1913.4845    
   2238500   302.48308      1409.0211     -2293.5613     -1903.1492    
   2239000   298.79811      450.87755     -2309.2109     -1923.555     
   2239500   288.04301      51.684243     -2334.5433     -1962.7688    
   2240000   298.70885      70.857066     -2311.303      -1925.7623    
   2240500   310.23447      786.16068     -2310.3716     -1909.9549    
   2241000   302.59332      123.32684     -2340.8974     -1950.343     
   2241500   296.97814      1813.2639     -2284.4537     -1901.1468    
   2242000   304.071        873.39334     -2297.7259     -1905.2643    
   2242500   307.21741      874.23558     -2323.9568     -1927.4341    
   2243000   299.33069      1237.0491     -2319.0952     -1932.7519    
   2243500   269.51155      3001.6018     -2311.2067     -1963.3506    
   2244000   311.28291      1801.3315     -2305.5257     -1903.7557    
   2244500   304.2052       648.51871     -2313.5667     -1920.9318    
   2245000   292.28861      1015.3589     -2344.0213     -1966.7671    
   2245500   290.82466      153.43762     -2310.214      -1934.8493    
   2246000   314.43993      580.60284     -2307.2248     -1901.3801    
   2246500   290.78741     -661.03454     -2323.4195     -1948.1028    
   2247000   301.66298      1279.4828     -2321.8015     -1932.4479    
   2247500   304.90382      629.56981     -2325.1311     -1931.5946    
   2248000   321.69838      1391.7247     -2320.4454     -1905.2323    
   2248500   299.60365     -545.4917      -2345.3852     -1958.6895    
   2249000   284.81599      1496.5243     -2286.6446     -1919.0353    
   2249500   305.87699      1494.0546     -2317.0734     -1922.2808    
   2250000   287.58337      2066.5081     -2347.7687     -1976.5875    
   2250500   301.80634      17.259335     -2347.0896     -1957.5509    
   2251000   293.99314      1530.4124     -2312.2476     -1932.7933    
   2251500   310.19185      1312.5657     -2329.2974     -1928.9356    
   2252000   307.24561      544.63684     -2367.1136     -1970.5545    
   2252500   295.99511      2333.3528     -2307.2415     -1925.2034    
   2253000   300.50143     -673.29872     -2326.3537     -1938.4993    
   2253500   305.00877      722.31709     -2342.2171     -1948.5451    
   2254000   297.3228       402.60084     -2305.077      -1921.3252    
   2254500   316.17524      3432.624      -2308.9692     -1900.8847    
   2255000   296.61616     -410.25706     -2322.9794     -1940.1397    
   2255500   301.64602      1462.2875     -2335.9154     -1946.5837    
   2256000   305.75004      446.62826     -2281.248      -1886.6193    
   2256500   277.30327      542.99383     -2279.1655     -1921.2528    
   2257000   324.70061      666.526       -2346.7138     -1927.6257    
   2257500   302.49328      491.85795     -2327.3625     -1936.9372    
   2258000   290.75144      750.74532     -2315.5858     -1940.3156    
   2258500   299.04078      1160.4926     -2299.4267     -1913.4576    
   2259000   319.31891      662.49901     -2305.2354     -1893.0934    
   2259500   309.53978      755.75343     -2341.2732     -1941.7531    
   2260000   310.87149     -17.634284     -2325.2281     -1923.9892    
   2260500   314.81136      934.39477     -2289.2287     -1882.9046    
   2261000   288.9931       909.87001     -2312.9902     -1939.9894    
   2261500   294.49273      86.496762     -2328.7682     -1948.6691    
   2262000   309.81867      2163.4498     -2296.0335     -1896.1534    
   2262500   306.79193      1567.4224     -2301.0188     -1905.0453    
   2263000   304.80058      813.38919     -2322.5346     -1929.1313    
   2263500   297.91173     -416.26425     -2328.0389     -1943.527     
   2264000   307.29898      584.23065     -2299.4686     -1902.8407    
   2264500   299.70904     -1365.662      -2316.4339     -1929.6022    
   2265000   309.63061      1050.7235     -2355.4412     -1955.8038    
   2265500   309.80005      776.57705     -2296.1102     -1896.2541    
   2266000   320.60151      603.05467     -2316.4211     -1902.6237    
   2266500   317.62219      1311.2952     -2353.8434     -1943.8914    
   2267000   289.93862      926.29134     -2323.3034     -1949.0823    
   2267500   296.62175      734.64854     -2304.0729     -1921.2259    
   2268000   309.79688     -87.225324     -2315.2718     -1915.4198    
   2268500   288.79284      2245.6117     -2345.2067     -1972.4644    
   2269000   306.31932      1262.3882     -2332.8932     -1937.5297    
   2269500   295.93368      3347.0849     -2289.8574     -1907.8985    
   2270000   300.88263      436.05217     -2259.5166     -1871.1702    
   2270500   293.03793      1600.5157     -2310.9765     -1932.7552    
   2271000   284.57564      1122.564      -2302.649      -1935.3499    
   2271500   323.53607      1762.6253     -2303.2877     -1885.7027    
   2272000   296.33162     -322.4951      -2298.0636     -1915.5911    
   2272500   298.21564      723.59981     -2322.4557     -1937.5515    
   2273000   296.55535      634.72855     -2285.4178     -1902.6566    
   2273500   316.15606      223.25496     -2306.0577     -1897.998     
   2274000   301.52115      1550.3234     -2319.7548     -1930.5842    
   2274500   304.87039      1179.4733     -2316.4461     -1922.9527    
   2275000   299.3941       2046.3853     -2323.5981     -1937.1729    
   2275500   310.83913      266.84941     -2367.5561     -1966.3589    
   2276000   285.94467      1715.9884     -2273.5272     -1904.4611    
   2276500   308.03653      1610.1051     -2307.2155     -1909.6356    
   2277000   275.33755      1036.1096     -2306.0394     -1950.6638    
   2277500   303.63652      1289.6672     -2320.2172     -1928.3163    
   2278000   314.24866      1681.8573     -2287.0341     -1881.4363    
   2278500   306.57068      1474.7311     -2317.1412     -1921.4532    
   2279000   304.92317      2032.3602     -2327.7324     -1934.1708    
   2279500   290.92999     -33.606817     -2329.6018     -1954.1011    
   2280000   282.76293      1605.4567     -2335.5264     -1970.5669    
   2280500   298.79794      88.350539     -2308.0524     -1922.3967    
   2281000   301.47418     -588.64665     -2297.6211     -1908.5111    
   2281500   325.27368      2227.6196     -2299.9617     -1880.1339    
   2282000   304.74282      598.85966     -2335.0855     -1941.7568    
   2282500   298.71873      207.9886      -2325.666      -1940.1125    
   2283000   317.12928     -390.40757     -2299.9826     -1890.6668    
   2283500   296.44908      1079.9685     -2279.0139     -1896.3898    
   2284000   301.68756      556.45659     -2346.7346     -1957.3493    
   2284500   290.44531     -643.77987     -2302.4951     -1927.6201    
   2285000   315.3923       563.62144     -2311.8477     -1904.7738    
   2285500   305.38161     -147.43104     -2334.6094     -1940.4562    
   2286000   300.05571      1107.2139     -2350.2753     -1962.9962    
   2286500   306.46231      1515.4159     -2315.156      -1919.6079    
   2287000   291.97774      1447.4074     -2307.4357     -1930.5828    
   2287500   296.99942      62.450353     -2304.6454     -1921.311     
   2288000   299.91868      265.6217      -2325.7203     -1938.618     
   2288500   284.69674      318.24335     -2337.104      -1969.6486    
   2289000   293.44666      914.28888     -2288.1206     -1909.3717    
   2289500   318.09297      1683.1367     -2304.9032     -1894.3436    
   2290000   284.43735      1993.421      -2310.3808     -1943.2602    
   2290500   297.3294       1010.3212     -2319.8455     -1936.0852    
   2291000   315.82674      2562.3898     -2295.9967     -1888.362     
   2291500   299.62893      1319.1065     -2306.745      -1920.0167    
   2292000   288.06124      738.04722     -2312.8726     -1941.0746    
   2292500   294.21912      871.71846     -2304.0018     -1924.2559    
   2293000   330.75448      50.387219     -2303.2761     -1876.3743    
   2293500   317.70357      1686.4683     -2334.6945     -1924.6374    
   2294000   304.91301      1618.6926     -2351.0657     -1957.5173    
   2294500   294.49573      1799.9397     -2307.5993     -1927.4963    
   2295000   308.89542      1213.8863     -2313.3811     -1914.6926    
   2295500   281.48993      511.43708     -2331.5326     -1968.2161    
   2296000   293.48389     -600.17724     -2328.4782     -1949.6813    
   2296500   297.77905      2999.8425     -2305.5804     -1921.2398    
   2297000   310.44792      1355.7762     -2308.1076     -1907.4153    
   2297500   315.40069      398.90952     -2307.5348     -1900.45      
   2298000   292.08568      603.62488     -2332.944      -1955.9518    
   2298500   295.38948      1692.6602     -2334.5358     -1953.2793    
   2299000   308.36477      243.35648     -2333.7573     -1935.7537    
   2299500   302.38987      38.260316     -2321.3828     -1931.091     
   2300000   319.71397      2050.5216     -2308.6004     -1895.9485    
   2300500   292.23333      2068.0719     -2241.8727     -1864.6898    
   2301000   298.53257      618.82484     -2308.0758     -1922.7625    
   2301500   288.15471      1228.4376     -2324.4161     -1952.4975    
   2302000   303.12368      2960.4283     -2332.8986     -1941.6597    
   2302500   297.79781      3013.7578     -2283.7455     -1899.3806    
   2303000   282.66351      1918.9585     -2308.2666     -1943.4355    
   2303500   295.41228      1086.5065     -2385.0505     -2003.7646    
   2304000   297.14599      35.710688     -2350.8749     -1967.3513    
   2304500   303.34858      1903.6629     -2320.8434     -1929.3142    
   2305000   307.23461      1993.0548     -2307.8117     -1911.2668    
   2305500   272.90288      163.21941     -2329.7611     -1977.5278    
   2306000   274.20608      768.57291     -2300.1387     -1946.2235    
   2306500   296.82905      2113.6757     -2289.5089     -1906.3944    
   2307000   290.89071      1136.7544     -2294.9667     -1919.5167    
   2307500   289.43116      533.56146     -2353.4117     -1979.8455    
   2308000   297.04304     -615.33725     -2335.6361     -1952.2454    
   2308500   310.82358      250.85192     -2327.9457     -1926.7685    
   2309000   294.79792      1321.6231     -2296.8928     -1916.3998    
   2309500   289.97759      1795.0037     -2327.7511     -1953.4797    
   2310000   275.46538      215.25262     -2334.3343     -1978.7937    
   2310500   306.36879      1232.9253     -2311.5177     -1916.0903    
   2311000   287.60734      1379.7642     -2274.1262     -1902.914     
   2311500   296.52747      2190.2442     -2304.6814     -1921.9562    
   2312000   309.19579      1628.9846     -2354.2098     -1955.1337    
   2312500   315.20314      124.44583     -2330.3643     -1923.5346    
   2313000   319.06646      1709.0027     -2297.6451     -1885.829     
   2313500   305.79909     -667.66438     -2318.8832     -1924.1912    
   2314000   282.93533     -153.5147      -2354.0417     -1988.8597    
   2314500   307.78926      795.3284      -2343.3335     -1946.0727    
   2315000   312.23449      1293.7271     -2319.7108     -1916.7126    
   2315500   284.52802     -976.1679      -2330.9923     -1963.7546    
   2316000   308.25469      1006.3565     -2345.9759     -1948.1145    
   2316500   312.22539      1040.7562     -2325.7171     -1922.7307    
   2317000   284.57446      681.65023     -2328.655      -1961.3574    
   2317500   276.51681      1904.3455     -2322.4895     -1965.5918    
   2318000   301.81667      970.89978     -2320.3249     -1930.7729    
   2318500   297.38024      1503.9786     -2304.103      -1920.277     
   2319000   311.38924      1076.3614     -2295.0006     -1893.0934    
   2319500   300.30691     -250.93916     -2296.4527     -1908.8494    
   2320000   316.82198      353.80887     -2342.0355     -1933.1163    
   2320500   322.42763      3018.7645     -2292.0926     -1875.9382    
   2321000   309.87563      527.75461     -2308.3577     -1908.4041    
   2321500   292.413       -384.09893     -2300.9976     -1923.5829    
   2322000   319.22103      1126.197      -2318.7479     -1906.7323    
   2322500   292.74918      1382.6828     -2314.6684     -1936.8198    
   2323000   298.52799     -7.3775729     -2315.3932     -1930.0859    
   2323500   316.83791     -230.55621     -2318.5093     -1909.5696    
   2324000   294.54939      667.76061     -2302.6332     -1922.461     
   2324500   317.58005      1140.2447     -2310.9277     -1901.03      
   2325000   294.25104      405.9555      -2275.5528     -1895.7657    
   2325500   295.46555     -323.51297     -2315.2543     -1933.8997    
   2326000   304.70087      2313.3928     -2302.4192     -1909.1446    
   2326500   315.47873      1079.5295     -2297.2019     -1890.0164    
   2327000   287.42265     -1249.5275     -2307.156      -1936.1822    
   2327500   318.59439      334.32188     -2322.3659     -1911.159     
   2328000   301.35067     -665.57748     -2324.8721     -1935.9216    
   2328500   298.43276      1375.231      -2322.8575     -1937.6731    
   2329000   310.26094      270.50854     -2302.0708     -1901.6199    
   2329500   304.75998      2293.2133     -2304.4627     -1911.1119    
   2330000   291.08894      612.17118     -2348.9747     -1973.2689    
   2330500   294.69363      920.56407     -2310.9399     -1930.5815    
   2331000   291.53031     -400.45766     -2277.1881     -1900.9126    
   2331500   319.06746      1130.1884     -2286.6487     -1874.8312    
   2332000   280.24254      1943.1788     -2309.582      -1947.8755    
   2332500   284.89156      1657.4615     -2295.8736     -1928.1667    
   2333000   307.7287       1244.9039     -2292.8        -1895.6174    
   2333500   301.66782      223.6346      -2305.8777     -1916.5179    
   2334000   282.2664       634.06091     -2304.4311     -1940.1124    
   2334500   307.95398      900.86719     -2289.1182     -1891.6449    
   2335000   304.30069      1476.9728     -2304.8466     -1912.0885    
   2335500   302.40953      2043.0404     -2332.3214     -1942.0042    
   2336000   287.04933      1211.6327     -2347.562      -1977.0701    
   2336500   275.29915      377.09442     -2322.377      -1967.051     
   2337000   296.81907     -202.7089      -2295.5648     -1912.4631    
   2337500   290.76111      1082.7649     -2300.4011     -1925.1184    
   2338000   290.33464      1376.8853     -2324.607      -1949.8748    
   2338500   313.84557      936.49061     -2316.2454     -1911.1678    
   2339000   308.47008      1889.0891     -2294.8662     -1896.7267    
   2339500   293.31047      2634.0133     -2320.1569     -1941.5838    
   2340000   295.23984      1455.7713     -2319.8876     -1938.8243    
   2340500   308.41158      1005.2784     -2292.8288     -1894.7648    
   2341000   294.23683     -59.140979     -2321.2925     -1941.5238    
   2341500   292.77137      114.95747     -2311.1261     -1933.2488    
   2342000   302.41226      2214.1609     -2304.6045     -1914.2838    
   2342500   313.55283      1113.7753     -2326.1858     -1921.4861    
   2343000   272.00863      1649.2971     -2311.1145     -1960.0354    
   2343500   302.58777      2024.7747     -2301.6094     -1911.0622    
   2344000   298.15438      876.61758     -2320.4102     -1935.5851    
   2344500   294.93872      1659.3062     -2351.4199     -1970.7452    
   2345000   301.38572      796.10393     -2333.203      -1944.2073    
   2345500   309.68103      283.13945     -2318.7261     -1919.0237    
   2346000   298.15179      723.74126     -2260.8253     -1876.0036    
   2346500   303.17904      2336.4459     -2325.7824     -1934.472     
   2347000   298.57961      2086.7072     -2341.6333     -1956.2593    
   2347500   316.47386      76.382862     -2312.3433     -1903.8734    
   2348000   290.69624      2567.4915     -2292.8468     -1917.6479    
   2348500   291.21705      456.58434     -2352.7882     -1976.9171    
   2349000   296.36015      2528.5062     -2333.3        -1950.7907    
   2349500   299.0205      -421.84982     -2313.2839     -1927.3409    
   2350000   325.73452      1343.4302     -2289.8839     -1869.4614    
   2350500   305.53286      903.96619     -2304.8352     -1910.4868    
   2351000   287.99515      998.52014     -2294.5514     -1922.8388    
   2351500   288.11874      605.48006     -2317.8426     -1945.9705    
   2352000   289.03846      543.17008     -2330.8251     -1957.7658    
   2352500   304.59507      1569.9736     -2302.9913     -1909.8533    
   2353000   291.85881      320.28574     -2317.8852     -1941.1858    
   2353500   300.08047      209.90686     -2331.9864     -1944.6754    
   2354000   294.3282       2060.7902     -2288.2618     -1908.3751    
   2354500   279.2844       96.764589     -2316.3867     -1955.9169    
   2355000   292.04895      59.79363      -2315.1923     -1938.2474    
   2355500   301.02072      1304.9045     -2282.8378     -1894.3131    
   2356000   300.89404      750.199       -2326.3877     -1938.0266    
   2356500   282.73371      1768.1426     -2320.568      -1955.6462    
   2357000   307.3557      -73.748512     -2306.6553     -1909.9542    
   2357500   298.84485      900.4368      -2309.7613     -1924.0451    
   2358000   291.57701     -172.66351     -2349.2648     -1972.9291    
   2358500   307.227       -196.70079     -2323.8396     -1927.3045    
   2359000   305.93857     -731.2642      -2315.0467     -1920.1747    
   2359500   286.56009      1736.5657     -2340.7419     -1970.8814    
   2360000   296.1666       1078.8871     -2332.486      -1950.2265    
   2360500   296.60003      2511.096      -2317.9259     -1935.107     
   2361000   304.08276      824.26722     -2295.1839     -1902.7071    
   2361500   304.10173      391.2862      -2288.3735     -1895.8722    
   2362000   289.4997      -571.37515     -2309.8647     -1936.2101    
   2362500   305.39312      1390.7017     -2296.8151     -1902.6471    
   2363000   318.01824      2055.5257     -2298.0178     -1887.5546    
   2363500   289.98714     -267.8383      -2291.3284     -1917.0447    
   2364000   298.44861      2330.7018     -2321.2114     -1936.0066    
   2364500   281.25628     -296.65674     -2340.3288     -1977.3139    
   2365000   301.97193      1505.7621     -2307.8022     -1918.0498    
   2365500   290.40018      717.68519     -2302.0159     -1927.199     
   2366000   303.93544      161.52902     -2359.6328     -1967.3461    
   2366500   312.38727      1157.9024     -2310.8118     -1907.6164    
   2367000   311.2655       1960.5598     -2337.0429     -1935.2954    
   2367500   295.21954      660.80146     -2341.143      -1960.1058    
   2368000   322.03229      95.494271     -2309.5135     -1893.8694    
   2368500   301.59531      886.08959     -2312.3449     -1923.0787    
   2369000   277.15882      360.05681     -2304.343      -1946.6166    
   2369500   300.1022       696.53544     -2310.7786     -1923.4395    
   2370000   326.94974      2686.5543     -2296.9932     -1875.0022    
   2370500   296.53178      306.72934     -2315.9579     -1933.2271    
   2371000   294.41577      1515.3343     -2343.197      -1963.1972    
   2371500   268.31045      171.99875     -2344.8186     -1998.5128    
   2372000   281.36666      1373.5477     -2296.4292     -1933.2718    
   2372500   313.11779      1268.1881     -2299.9445     -1895.8063    
   2373000   295.23339      1071.0427     -2282.7246     -1901.6696    
   2373500   300.54592     -346.75334     -2340.741      -1952.8292    
   2374000   301.57252      859.39918     -2331.8508     -1942.6139    
   2374500   305.98799      1527.3811     -2297.2331     -1902.2973    
   2375000   291.39552      428.5992      -2325.9646     -1949.8631    
   2375500   295.41366      462.90937     -2333.6998     -1952.4121    
   2376000   305.22112     -297.93026     -2316.927      -1922.981     
   2376500   314.31276      2523.7885     -2289.9162     -1884.2356    
   2377000   304.22438     -53.305245     -2333.1672     -1940.5076    
   2377500   290.1203      -156.09881     -2329.8825     -1955.4269    
   2378000   304.0474       2062.4041     -2286.385      -1893.9539    
   2378500   283.19031      1324.8454     -2289.3073     -1923.7961    
   2379000   278.77352      599.63703     -2315.3556     -1955.5452    
   2379500   304.79015      432.30563     -2334.2716     -1940.8818    
   2380000   289.39574      2943.4995     -2271.637      -1898.1166    
   2380500   288.9684       1650.1679     -2298.0548     -1925.0859    
   2381000   281.81128      664.95726     -2315.9827     -1952.2515    
   2381500   308.42531      2232.6897     -2301.4977     -1903.416     
   2382000   309.86128      1734.9266     -2314.572      -1914.637     
   2382500   313.58224      1100.52       -2345.5028     -1940.7651    
   2383000   285.92951      2056.7367     -2318.32       -1949.2735    
   2383500   300.11338      368.50212     -2301.2712     -1913.9176    
   2384000   311.18389      1060.6632     -2291.8367     -1890.1945    
   2384500   294.41261      1007.5892     -2326.6985     -1946.7029    
   2385000   309.17791      843.84631     -2313.0241     -1913.971     
   2385500   287.18741     -385.55806     -2299.2858     -1928.6157    
   2386000   309.41776      2402.5634     -2323.2266     -1923.864     
   2386500   292.97999      1066.1568     -2323.2386     -1945.092     
   2387000   255.19651     -443.62502     -2294.5399     -1965.1601    
   2387500   302.39262      226.64714     -2310.4659     -1920.1706    
   2388000   307.50396      2414.3825     -2288.8386     -1891.9461    
   2388500   292.50115      1785.9819     -2315.6244     -1938.0959    
   2389000   291.28059      1390.5179     -2329.4098     -1953.4566    
   2389500   304.24836      823.94561     -2342.5753     -1949.8848    
   2390000   300.16303      1598.8269     -2302.3533     -1914.9357    
   2390500   312.35194      1256.5754     -2295.1614     -1892.0116    
   2391000   289.2451      -100.10107     -2322.8177     -1949.4917    
   2391500   303.17458      3515.999      -2310.0401     -1918.7354    
   2392000   328.99437      1136.3673     -2322.9419     -1898.3119    
   2392500   285.83851      1052.0141     -2331.2415     -1962.3124    
   2393000   292.21782     -590.99291     -2305.6455     -1928.4827    
   2393500   288.22009      1572.9674     -2292.4755     -1920.4725    
   2394000   296.44672      2309.684      -2322.4685     -1939.8475    
   2394500   307.02057      1368.1433     -2302.1567     -1905.8881    
   2395000   318.45784      1777.8582     -2320.3662     -1909.3356    
   2395500   300.16403      465.27511     -2353.4303     -1966.0114    
   2396000   292.21504      944.35766     -2312.4526     -1935.2934    
   2396500   288.4003       486.78901     -2274.2032     -1901.9676    
   2397000   304.35813      2891.2282     -2306.8493     -1914.0171    
   2397500   302.62821      1861.1958     -2318.5008     -1927.9013    
   2398000   307.01173      831.53906     -2321.8766     -1925.6194    
   2398500   313.99661      1513.4336     -2292.9864     -1887.7139    
   2399000   290.73678      1036.6682     -2319.7292     -1944.478     
   2399500   282.5328       1313.8793     -2315.6733     -1951.0108    
   2400000   316.36722      1975.5678     -2308.7376     -1900.4053    
   2400500   286.90726      627.96993     -2310.8815     -1940.5729    
   2401000   283.4793       195.38151     -2312.4012     -1946.5171    
   2401500   303.25371      547.24374     -2303.7542     -1912.3475    
   2402000   301.69489      2350.7052     -2345.0634     -1955.6686    
   2402500   291.47498     -133.33726     -2328.6257     -1952.4217    
   2403000   296.10507      1202.7699     -2285.4746     -1903.2945    
   2403500   316.65259      885.19543     -2317.5744     -1908.8738    
   2404000   298.03599      363.91372     -2318.5392     -1933.8669    
   2404500   302.64471      1154.8189     -2340.4148     -1949.7941    
   2405000   295.24652      2384.5349     -2318.4071     -1937.3351    
   2405500   318.84475      1063.3541     -2288.8967     -1877.3668    
   2406000   285.6358      -435.29889     -2296.578      -1927.9105    
   2406500   306.46756      736.49893     -2311.7485     -1916.1936    
   2407000   318.97121      1218.5302     -2321.3466     -1909.6534    
   2407500   292.90179      900.5782      -2332.1743     -1954.1287    
   2408000   300.94367      1903.3209     -2307.7717     -1919.3465    
   2408500   304.29308      485.87009     -2259.0012     -1866.2529    
   2409000   302.3454       962.4841      -2301.9927     -1911.7583    
   2409500   298.06277     -126.08017     -2313.3505     -1928.6437    
   2410000   284.12526      836.53449     -2310.5125     -1943.7947    
   2410500   296.98909      949.99791     -2353.0513     -1969.7302    
   2411000   321.45938      1104.6531     -2329.0652     -1914.1605    
   2411500   307.6193       1183.1179     -2326.6665     -1929.6251    
   2412000   283.36791      893.70979     -2341.8699     -1976.1296    
   2412500   298.99952      1002.3853     -2301.2664     -1915.3504    
   2413000   296.51024      1537.4425     -2297.2148     -1914.5117    
   2413500   300.73103      325.67163     -2345.3689     -1957.2181    
   2414000   315.71491      1968.2785     -2326.7193     -1919.229     
   2414500   289.93644     -111.48183     -2285.9258     -1911.7075    
   2415000   307.70158      464.64682     -2323.2672     -1926.1196    
   2415500   281.39421      2676.5947     -2324.4655     -1961.2726    
   2416000   311.01005      1171.4565     -2323.9773     -1922.5595    
   2416500   312.13705      2841.596      -2262.6235     -1859.7511    
   2417000   302.101        837.66381     -2311.8899     -1921.9709    
   2417500   286.77086     -824.26585     -2303.9865     -1933.854     
   2418000   300.21718      937.2009      -2293.8116     -1906.324     
   2418500   321.38414      220.6021      -2312.3136     -1897.506     
   2419000   280.88248      373.0592      -2311.4885     -1948.9561    
   2419500   294.07138      90.37653      -2324.4818     -1944.9265    
   2420000   305.70584      618.96454     -2286.3889     -1891.8172    
   2420500   292.58577      633.5408      -2314.7755     -1937.1378    
   2421000   306.9632       1737.1344     -2310.0331     -1913.8386    
   2421500   298.89775      1205.2846     -2272.4916     -1886.7071    
   2422000   290.83208      1181.0415     -2308.4141     -1933.0398    
   2422500   315.04992      1843.5484     -2326.576      -1919.944     
   2423000   289.78952      378.84463     -2324.485      -1950.4563    
   2423500   276.43984      923.76448     -2319.6977     -1962.8994    
   2424000   306.77535      1375.7999     -2306.8917     -1910.9396    
   2424500   297.00444      826.57674     -2316.5179     -1933.1771    
   2425000   269.41399      1544.5057     -2332.0782     -1984.348     
   2425500   314.01306     -14.123512     -2331.8606     -1926.5668    
   2426000   279.33122      1339.7077     -2272.7756     -1912.2454    
   2426500   312.15176     -284.89129     -2337.9019     -1935.0105    
   2427000   295.285        1410.8397     -2328.2337     -1947.1121    
   2427500   311.10413      242.33016     -2299.7441     -1898.2048    
   2428000   299.39248      3156.7857     -2324.9811     -1938.558     
   2428500   295.87255      1691.7548     -2327.5752     -1945.6953    
   2429000   297.3829       475.3655      -2297.5669     -1913.7375    
   2429500   319.44497      1813.6112     -2298.4607     -1886.156     
   2430000   294.40239      646.2852      -2315.541      -1935.5585    
   2430500   294.52877     -321.03117     -2308.615      -1928.4695    
   2431000   307.37645      2522.6688     -2279.3546     -1882.6266    
   2431500   296.51804      512.03186     -2320.333      -1937.6199    
   2432000   295.07591      745.7234      -2314.4201     -1933.5683    
   2432500   308.14545      3580.0716     -2307.3052     -1909.5847    
   2433000   305.05349      2519.3677     -2288.0799     -1894.3502    
   2433500   308.82852      1337.3093     -2347.9693     -1949.3672    
   2434000   292.6778       382.17458     -2316.7345     -1938.9779    
   2434500   311.73477      934.04956     -2303.4617     -1901.1085    
   2435000   310.84357      1377.3173     -2338.6726     -1937.4696    
   2435500   285.3512       2802.6644     -2298.4846     -1930.1844    
   2436000   316.58877      236.93432     -2306.0162     -1897.398     
   2436500   303.47861      882.73718     -2322.3499     -1930.6529    
   2437000   306.52289     -1064.7484     -2317.1005     -1921.4743    
   2437500   316.18751     -550.84641     -2286.2091     -1878.1088    
   2438000   300.18232      2467.5029     -2313.9658     -1926.5233    
   2438500   288.43095      2128.6684     -2317.1893     -1944.9141    
   2439000   304.8779       1403.7162     -2296.364      -1902.861     
   2439500   299.13365      825.40152     -2292.9427     -1906.8537    
   2440000   300.78347     -145.21713     -2319.6685     -1931.45      
   2440500   314.06433      61.102999     -2269.9409     -1864.581     
   2441000   303.9701       1401.0777     -2291.3775     -1899.0461    
   2441500   296.36783      1088.8556     -2318.8899     -1936.3706    
   2442000   290.76341      622.64458     -2338.6089     -1963.3233    
   2442500   286.54378      1268.7077     -2318.776      -1948.9366    
   2443000   304.61892      1864.5496     -2302.3853     -1909.2165    
   2443500   297.35329      1245.0107     -2328.2556     -1944.4645    
   2444000   293.3323       1051.5797     -2351.2691     -1972.6679    
   2444500   276.40187      1245.9732     -2292.9614     -1936.212     
   2445000   317.17162      2175.6771     -2312.6249     -1903.2544    
   2445500   299.2399       2583.0977     -2327.4235     -1941.1974    
   2446000   293.9067       260.68943     -2325.4202     -1946.0775    
   2446500   310.36076      219.50552     -2313.2417     -1912.662     
   2447000   304.24422      258.0967      -2312.1033     -1919.4181    
   2447500   298.80406      752.41381     -2300.1645     -1914.5008    
   2448000   307.07699     -60.647719     -2336.3338     -1939.9924    
   2448500   286.99564      1451.7869     -2344.188      -1973.7653    
   2449000   311.25802      1426.0957     -2314.967      -1913.2292    
   2449500   280.17791      1740.2949     -2295.4405     -1933.8175    
   2450000   286.17839      1648.4447     -2330.8003     -1961.4324    
   2450500   289.69224     -63.067363     -2309.0082     -1935.1051    
   2451000   306.14811     -463.5231      -2300.6302     -1905.4877    
   2451500   291.53929      1628.5586     -2315.4383     -1939.1512    
   2452000   300.43942      604.65606     -2321.0631     -1933.2888    
   2452500   328.699        1036.8015     -2320.2518     -1896.003     
   2453000   307.67228      950.69373     -2299.8996     -1902.7898    
   2453500   291.84124      1271.9783     -2294.781      -1918.1042    
   2454000   284.21702      426.71575     -2316.5465     -1949.7102    
   2454500   301.90532      249.82705     -2359.5833     -1969.9169    
   2455000   300.71532      1173.3262     -2299.9759     -1911.8454    
   2455500   287.71854      2100.0379     -2305.7836     -1934.4279    
   2456000   280.0236       542.39383     -2318.8915     -1957.4676    
   2456500   300.47073      1390.9984     -2324.6383     -1936.8235    
   2457000   285.60193      754.61289     -2333.1545     -1964.5307    
   2457500   279.03935     -665.61685     -2371.7982     -2011.6447    
   2458000   298.25094      500.84893     -2344.5479     -1959.5981    
   2458500   298.76222      715.21685     -2312.3808     -1926.7712    
   2459000   310.84982      1059.9374     -2282.354      -1881.143     
   2459500   312.3817       1441.6164     -2312.7716     -1909.5834    
   2460000   291.26603     -418.0766      -2323.1792     -1947.2449    
   2460500   304.1453       406.83381     -2306.2442     -1913.6867    
   2461000   298.45798      1958.206      -2269.8661     -1884.6492    
   2461500   292.29643      625.06933     -2315.5934     -1938.3291    
   2462000   300.69842      1506.4732     -2320.2057     -1932.097     
   2462500   314.97276      1534.1484     -2289.1822     -1882.6497    
   2463000   292.48972     -1097.9044     -2322.2738     -1944.7601    
   2463500   283.02598      915.54265     -2288.1361     -1922.8371    
   2464000   314.5502       942.79252     -2321.4123     -1915.4253    
   2464500   297.19416      715.3739      -2331.8239     -1948.2381    
   2465000   312.23502      297.25911     -2312.9194     -1909.9206    
   2465500   291.22887      118.05601     -2287.8713     -1911.9849    
   2466000   293.22614      828.60368     -2328.9144     -1950.4501    
   2466500   298.14164      697.07059     -2307.1338     -1922.3252    
   2467000   316.12336      1156.2546     -2316.0605     -1908.043     
   2467500   308.6964       549.80713     -2354.4762     -1956.0446    
   2468000   306.27579      902.59841     -2312.1594     -1916.8521    
   2468500   321.55915      92.901702     -2336.1342     -1921.1008    
   2469000   291.19459      869.0966      -2325.1653     -1949.3232    
   2469500   309.33468     -461.58273     -2305.688      -1906.4326    
   2470000   307.21386      1886.2299     -2302.4389     -1905.9208    
   2470500   308.86844     -234.27072     -2348.3391     -1949.6855    
   2471000   287.57046      119.76072     -2322.5098     -1951.3453    
   2471500   302.33733      2770.4302     -2301.4708     -1911.2468    
   2472000   299.49853      631.17151     -2316.3586     -1929.7986    
   2472500   306.87492      168.71983     -2334.4924     -1938.4118    
   2473000   298.07283      1255.0496     -2274.6803     -1889.9605    
   2473500   296.24516      659.988       -2323.3897     -1941.0288    
   2474000   297.07121      990.97143     -2316.3249     -1932.8978    
   2474500   330.69017     -385.7487      -2315.4357     -1888.6169    
   2475000   291.47735      59.97127      -2309.0777     -1932.8705    
   2475500   305.57384      1234.9311     -2327.7197     -1933.3184    
   2476000   298.95337      944.69747     -2319.6773     -1933.8209    
   2476500   284.17196     -437.82961     -2288.2605     -1921.4824    
   2477000   308.61129      764.50147     -2289.9606     -1891.6388    
   2477500   307.07154      140.5826      -2331.2281     -1934.8937    
   2478000   282.76385      1395.8206     -2319.0471     -1954.0864    
   2478500   306.38987      1060.6746     -2296.3018     -1900.8472    
   2479000   308.78427     -586.29549     -2330.3956     -1931.8506    
   2479500   291.41164      975.11987     -2321.644      -1945.5217    
   2480000   306.69851      765.97694     -2325.1938     -1929.3408    
   2480500   325.03592      3147.4271     -2286.5867     -1867.0659    
   2481000   295.21024      142.48397     -2308.006      -1926.9808    
   2481500   278.57137     -448.16847     -2308.0231     -1948.4736    
   2482000   325.90827      613.0042      -2312.5777     -1891.9309    
   2482500   282.41438      517.04413     -2314.4213     -1949.9116    
   2483000   291.74673      127.14716     -2312.2276     -1935.6728    
   2483500   313.81872      1209.9803     -2320.5567     -1915.5138    
   2484000   300.24497      101.38315     -2359.7893     -1972.2659    
   2484500   294.57221     -0.92450959    -2318.2188     -1938.0171    
   2485000   306.97433      207.81084     -2313.0951     -1916.8862    
   2485500   310.82072      1516.3741     -2297.4471     -1896.2736    
   2486000   300.37603      1311.3898     -2326.3196     -1938.627     
   2486500   296.95482      193.85815     -2346.8472     -1963.5704    
   2487000   304.70676      848.86916     -2304.8915     -1911.6093    
   2487500   332.78102      1576.7833     -2287.6955     -1858.1781    
   2488000   310.44754      397.80254     -2306.2876     -1905.5959    
   2488500   284.08883      928.55992     -2300.1497     -1933.4789    
   2489000   291.04772      1011.8735     -2356.5806     -1980.928     
   2489500   310.88461     -658.39863     -2369.6487     -1968.3928    
   2490000   304.43764      907.46807     -2337.6562     -1944.7214    
   2490500   312.05357      1171.5565     -2313.8622     -1911.0975    
   2491000   292.48295      835.32981     -2287.5533     -1910.0482    
   2491500   276.68777      2181.529      -2304.9315     -1947.8131    
   2492000   307.73279      2254.2552     -2305.5099     -1908.322     
   2492500   315.10345      2017.2419     -2337.3587     -1930.6576    
   2493000   274.16749      1815.7325     -2320.989      -1967.1235    
   2493500   291.07542      1359.3219     -2292.6227     -1916.9344    
   2494000   304.19063      1045.5907     -2317.7322     -1925.1162    
   2494500   285.09528      2871.1792     -2338.5833     -1970.6135    
   2495000   292.13088      935.98453     -2312.339      -1935.2883    
   2495500   298.51702     -341.96216     -2330.9127     -1945.6196    
   2496000   303.02293      672.58171     -2353.4445     -1962.3357    
   2496500   300.19538      146.07876     -2295.5261     -1908.0667    
   2497000   298.02287      1139.653      -2321.5925     -1936.9372    
   2497500   292.97787      268.47685     -2366.6407     -1988.4968    
   2498000   287.70804      990.98605     -2359.4293     -1988.0872    
   2498500   295.89499      317.88052     -2318.3776     -1936.4687    
   2499000   295.73589      1199.6069     -2287.9964     -1906.2929    
   2499500   305.3301       1868.7119     -2302.958      -1908.8713    
   2500000   307.67177      794.82534     -2348.5958     -1951.4867    
Loop time of 3991.71 on 16 procs for 2500000 steps with 650 atoms

Performance: 108.224 ns/day, 0.222 hours/ns, 626.298 timesteps/s
89.4% CPU use with 16 MPI tasks x no OpenMP threads

MPI task timing breakdown:
Section |  min time  |  avg time  |  max time  |%varavg| %total
---------------------------------------------------------------
Pair    | 1064.5     | 1212.8     | 1338.3     | 226.0 | 30.38
Bond    | 1.0836     | 1.1692     | 1.2818     |   4.9 |  0.03
Kspace  | 1159.7     | 1283.3     | 1430.9     | 219.1 | 32.15
Neigh   | 123.19     | 123.43     | 123.57     |   1.0 |  3.09
Comm    | 620.57     | 622.54     | 624.29     |   4.0 | 15.60
Output  | 2.7753     | 2.7842     | 2.8422     |   0.9 |  0.07
Modify  | 696.78     | 698.83     | 701.12     |   5.3 | 17.51
Other   |            | 46.83      |            |       |  1.17

Nlocal:         40.625 ave          48 max          33 min
Histogram: 2 0 1 0 4 4 1 1 2 1
Nghost:        3287.75 ave        3339 max        3233 min
Histogram: 2 1 2 2 0 2 1 2 3 1
Neighs:        15444.4 ave       17668 max       11922 min
Histogram: 1 0 1 1 2 1 4 3 1 2

Total # of neighbors = 247111
Ave neighs/atom = 380.17077
Ave special neighs/atom = 1.9938462
Neighbor list builds = 198716
Dangerous builds = 22491

write_data  end.data                                   # write a lammps.data file with the final configuration, can be used to start new simulations
System init for write_data ...
PPPM initialization ...
  using 12-bit tables for long-range coulomb (../kspace.cpp:342)
  G vector (1/distance) = 0.30520329
  grid = 16 16 16
  stencil order = 5
  estimated absolute RMS force accuracy = 0.0030333252
  estimated relative force accuracy = 9.1347686e-06
  using double precision KISS FFT
  3d grid and FFT values/proc = 2475 256
Generated 5 of 6 mixed pair_coeff terms from arithmetic mixing rule
WARNING: Not all mixed pair coeffs generated from mixing. Use write_data with 'pair ij' option to store all pair coeffs. (../write_data.cpp:309)
Total wall time: 1:06:31
